@relation data

@attribute ﻿requests/s numeric
@attribute ProcessTime numeric
@attribute QueueTime numeric
@attribute SendTime numeric

@data
1859.37455,0.002287,0.001179,0.000121
1918.923763,0.002362,0.00181,0.00011
1916.704779,0.002007,0.000214,0.000119
1931.60392,0.002153,0.000232,0.000104
1909.183042,0.002057,0.000164,0.000101
1858.99796,0.002068,0.000182,0.000105
1837.391227,0.002094,0.00017,0.000116
1834.820699,0.002198,0.000587,0.000117
1862.354132,0.00205,0.000433,0.000092
1911.537225,0.002517,0.004316,0.000132
1830.60632,0.002417,0.002181,0.000124
1844.941068,0.002052,0.000176,0.000094
1801.40739,0.002397,0.001583,0.000103
1806.451153,0.002538,0.000309,0.00016
1768.199817,0.002957,0.00253,0.000129
1729.24248,0.002889,0.004318,0.000101
1713.900059,0.00221,0.000201,0.000155
1739.266961,0.002092,0.000375,0.000116
1772.471193,0.002747,0.003746,0.000111
1763.22446,0.003173,0.003071,0.000111
1740.780427,0.002732,0.005656,0.000092
1706.555401,0.00245,0.003821,0.000109
1725.577667,0.002405,0.00131,0.000139
1647.480293,0.002772,0.002509,0.000099
1673.233466,0.002844,0.002643,0.000136
1656.099562,0.003395,0.007744,0.000131
1709.175727,0.003156,0.003658,0.000169
1616.509411,0.002769,0.002294,0.000102
1616.627216,0.002779,0.001901,0.000109
1607.690993,0.002311,0.002285,0.000103
1596.822933,0.002628,0.001634,0.000116
1639.883322,0.00335,0.004207,0.000144
1581.775049,0.003533,0.004363,0.000155
1565.620343,0.003109,0.003587,0.000139
1564.324356,0.002512,0.00174,0.000128
1531.975239,0.003439,0.011411,0.000114
1550.228515,0.00234,0.000785,0.000114
1637.606892,0.002807,0.002256,0.000119
1459.172869,0.002827,0.004658,0.000115
1515.104964,0.00263,0.001649,0.000114
1440.149973,0.002981,0.003231,0.000147
1535.892811,0.003083,0.001814,0.00012
1445.741473,0.002934,0.003685,0.000154
1461.296506,0.003116,0.003988,0.000149
1516.89157,0.003277,0.007055,0.000131
1503.620857,0.003056,0.004603,0.000117
1504.198228,0.003005,0.001349,0.000148
1468.612482,0.00267,0.001952,0.000195
1507.401323,0.002073,0.000168,0.000095
1436.636692,0.002033,0.000141,0.000093
1457.905483,0.002032,0.000143,0.0001
1449.766381,0.002562,0.001422,0.000097
1428.037431,0.00215,0.000156,0.000103
1399.341425,0.002146,0.000161,0.000089
1403.791375,0.002139,0.001335,0.000087
1327.219608,0.002805,0.002673,0.000105
1397.510443,0.002044,0.000179,0.000101
1352.368063,0.002033,0.000117,0.000093
1353.376321,0.002163,0.000128,0.000114
1332.243939,0.002661,0.000714,0.000142
1399.944148,0.002039,0.000128,0.000094
1333.598867,0.002029,0.000123,0.000087
1377.769966,0.001901,0.000116,0.000079
1383.650261,0.002426,0.000411,0.00012
1381.043559,0.002585,0.000345,0.000131
1442.985976,0.002517,0.002164,0.000102
1363.943641,0.002405,0.001168,0.000095
1372.687243,0.002394,0.002241,0.000088
1410.97832,0.00219,0.000362,0.000096
1410.358839,0.001956,0.000103,0.000083
1404.626649,0.001953,0.00011,0.000081
1412.196094,0.001911,0.000101,0.00009
1442.143949,0.002124,0.000209,0.000108
1479.330068,0.002485,0.001682,0.000122
1375.544617,0.00213,0.000193,0.000105
1442.307668,0.002261,0.000147,0.000082
1423.158004,0.002402,0.001012,0.000113
1337.808673,0.002364,0.002351,0.00013
1386.595426,0.002321,0.002283,0.000089
1402.715793,0.00212,0.001055,0.000085
1376.927732,0.002004,0.00011,0.000092
1381.773124,0.002159,0.000115,0.000101
1416.402952,0.002093,0.000329,0.000119
1365.1268,0.002139,0.000359,0.00008
1407.059612,0.002015,0.000132,0.000134
1326.238627,0.002039,0.000132,0.000089
1338.157963,0.002211,0.00039,0.000092
1322.092094,0.001967,0.000097,0.000093
1337.784546,0.002078,0.000199,0.000078
1238.922013,0.0022,0.000121,0.000103
1465.93664,0.001977,0.000122,0.000102
1357.883473,0.002673,0.002915,0.000116
1352.417212,0.002121,0.000237,0.000096
1374.173955,0.002246,0.000151,0.000091
1276.415002,0.002144,0.000311,0.000111
1287.52712,0.002439,0.004561,0.000112
1357.164164,0.002164,0.000146,0.0001
1285.461017,0.002084,0.000128,0.000082
1365.829202,0.002544,0.000595,0.000111
1321.59501,0.002087,0.00018,0.000066
1284.067199,0.002537,0.005141,0.000099
1247.51822,0.002179,0.000109,0.000125
1286.646209,0.001955,0.000157,0.000097
1351.084871,0.001851,0.000153,0.000094
1305.86025,0.00209,0.000124,0.000099
1355.105903,0.00228,0.000187,0.00011
1328.248243,0.001829,0.000108,0.000086
1286.894793,0.002193,0.000754,0.000109
1386.372685,0.002156,0.000141,0.000101
1301.958615,0.0021,0.000147,0.000096
1315.096884,0.002061,0.000138,0.000077
1360.701646,0.002045,0.000147,0.000102
1342.896976,0.002145,0.000125,0.000093
1362.9122,0.002226,0.000225,0.000105
1335.839144,0.002346,0.000124,0.00011
1351.445381,0.002484,0.003953,0.000106
1358.569288,0.00241,0.000796,0.000105
1391.417634,0.001912,0.000121,0.000082
1240.766267,0.002037,0.000106,0.000087
1259.587353,0.002356,0.000872,0.000083
1315.765881,0.00247,0.000626,0.000149
1362.517612,0.001904,0.00011,0.00012
1271.49921,0.002049,0.000175,0.000072
1258.040777,0.002581,0.006226,0.000083
1325.240491,0.002578,0.003877,0.000119
1223.636108,0.001955,0.000127,0.000099
1306.695509,0.002126,0.000515,0.000071
1256.239847,0.002314,0.001191,0.000093
1288.552297,0.002137,0.000103,0.000085
1252.391848,0.002129,0.000324,0.000108
1255.12328,0.0022,0.000971,0.000099
1220.448151,0.002156,0.000113,0.000111
1193.314107,0.002207,0.000181,0.000125
1214.502788,0.002039,0.000125,0.000092
1167.399133,0.003321,0.003763,0.000141
1200.985404,0.002635,0.001246,0.000125
1254.813272,0.002589,0.001636,0.000103
1154.477381,0.002089,0.000111,0.000121
1257.929331,0.002365,0.002146,0.000112
1205.428649,0.002197,0.000362,0.000096
1266.110779,0.002124,0.000126,0.000104
1179.900252,0.001986,0.000107,0.000075
1185.89479,0.002612,0.000886,0.000105
1137.285198,0.002521,0.000348,0.000105
1143.640233,0.002682,0.001944,0.000124
1123.20622,0.002825,0.001463,0.000118
1204.689283,0.002736,0.000953,0.000118
1155.708895,0.002097,0.000088,0.000091
1170.058513,0.002137,0.000119,0.000085
1108.535603,0.002118,0.00009,0.000081
1109.859212,0.002203,0.000096,0.00011
1173.382635,0.002153,0.000295,0.000079
1172.281957,0.003171,0.00308,0.000122
1139.980421,0.002762,0.000391,0.000114
1137.874228,0.002243,0.000128,0.000097
1177.284687,0.002213,0.000102,0.000101
1133.945521,0.00215,0.000372,0.000084
1129.349451,0.001918,0.000154,0.000089
1179.95835,0.002377,0.000373,0.000101
1109.549072,0.002596,0.002323,0.000109
1187.829252,0.002323,0.000638,0.000106
1197.542468,0.002177,0.00021,0.000078
1168.050092,0.002126,0.000678,0.000082
1197.369943,0.002131,0.00039,0.00008
1151.178567,0.002364,0.000486,0.000122
1123.977063,0.002938,0.000754,0.000178
1116.742405,0.003224,0.00654,0.000134
1225.278908,0.002508,0.000666,0.000095
1135.750963,0.002021,0.000143,0.000091
1151.514078,0.00214,0.000116,0.000103
1130.442842,0.002067,0.001023,0.000058
1132.099572,0.001945,0.000112,0.000099
1161.684907,0.001949,0.000103,0.000135
1097.816961,0.002296,0.000244,0.000077
1098.15427,0.002647,0.001021,0.000072
1088.010049,0.003075,0.00606,0.000128
1062.824999,0.002489,0.00043,0.000066
1064.387463,0.002681,0.002023,0.000047
1103.635625,0.002024,0.000119,0.000104
1045.087136,0.00199,0.000104,0.000145
1067.443353,0.002823,0.003467,0.000134
1126.343556,0.002407,0.001462,0.000131
1132.283897,0.002216,0.000153,0.000083
1048.558671,0.002764,0.003613,0.000071
1075.549122,0.002445,0.002537,0.000075
1067.780432,0.00198,0.000128,0.000034
1111.7091,0.002268,0.000133,0.000036
1094.858144,0.002033,0.000138,0.000045
1052.072922,0.002369,0.000152,0.000078
1072.415548,0.002394,0.001857,0.000105
1124.725047,0.002071,0.000604,0.000098
1082.17824,0.002392,0.000247,0.000118
1188.204021,0.002152,0.000833,0.000093
1116.821793,0.001987,0.000133,0.000053
1089.734239,0.002112,0.000645,0.000128
1210.651479,0.002114,0.000554,0.000129
1140.910196,0.002201,0.000154,0.000141
1235.700294,0.001951,0.000168,0.000121
1186.044365,0.002067,0.000172,0.000106
1227.29958,0.001917,0.000114,0.000101
1132.502421,0.001932,0.000116,0.000066
1116.295853,0.001955,0.000144,0.000122
1136.658271,0.002438,0.001135,0.000119
1189.660924,0.00244,0.000246,0.000099
1229.444453,0.002162,0.000132,0.000104
1127.999334,0.002153,0.000144,0.00011
1166.062858,0.002049,0.000126,0.000085
1042.973127,0.00219,0.000124,0.000114
1143.755785,0.001946,0.000312,0.000082
1161.157484,0.002049,0.000138,0.000099
1210.071199,0.00212,0.000128,0.000077
1180.198843,0.00207,0.000121,0.000091
1131.789392,0.002059,0.000123,0.000074
1185.840563,0.00185,0.000166,0.000072
1198.650162,0.00218,0.000115,0.000079
1207.298587,0.002085,0.000112,0.000104
1228.464826,0.002118,0.000128,0.00007
1244.917806,0.002032,0.000135,0.000105
1213.219831,0.002119,0.000129,0.00008
1242.378486,0.002097,0.00012,0.000136
1149.914873,0.002011,0.000123,0.000103
1232.559873,0.002097,0.000129,0.000122
1218.271415,0.002024,0.000107,0.000094
1267.685675,0.002035,0.00012,0.000068
1299.552613,0.002001,0.000128,0.000074
1241.830825,0.001949,0.000221,0.000076
1284.483497,0.001965,0.000125,0.000077
1250.736107,0.00192,0.000125,0.000104
1192.027897,0.002084,0.000115,0.000086
1173.396657,0.002206,0.000449,0.000096
1270.673392,0.001988,0.000128,0.000082
1191.570335,0.001947,0.000111,0.000098
1237.768085,0.002234,0.000268,0.000086
1220.45368,0.002115,0.00011,0.00007
1226.115948,0.002004,0.000133,0.000079
1272.241031,0.002148,0.000147,0.000083
1252.533837,0.002164,0.00012,0.000094
1327.145014,0.001885,0.000308,0.000099
1249.946019,0.002073,0.000124,0.00008
1259.865027,0.001965,0.000236,0.000085
1268.761395,0.002384,0.000385,0.000097
1328.397246,0.002814,0.000408,0.000117
1379.991488,0.002302,0.000161,0.00012
1356.366965,0.002326,0.000197,0.000111
1359.594289,0.002285,0.000174,0.000111
1379.975491,0.002309,0.000154,0.000117
1416.086926,0.002883,0.000973,0.000131
1377.136989,0.002762,0.003964,0.000132
1429.073332,0.002516,0.001391,0.000149
1301.102306,0.002575,0.000243,0.000114
1374.168049,0.002518,0.002392,0.00012
1333.209303,0.002162,0.000141,0.000113
1393.808837,0.002193,0.000146,0.000099
1418.209555,0.002069,0.000127,0.000079
1424.681002,0.002311,0.001776,0.000119
1432.383319,0.001967,0.000121,0.000102
1462.443767,0.002148,0.000125,0.000102
1473.043617,0.002081,0.000134,0.000095
1476.501572,0.002265,0.000286,0.000087
1492.659656,0.001988,0.000148,0.000108
1486.941588,0.002141,0.000155,0.000107
1494.183504,0.002181,0.00019,0.00011
1581.421214,0.00236,0.000219,0.0001
1446.198272,0.002168,0.000151,0.000108
1476.16206,0.002134,0.00016,0.000098
1540.373975,0.002074,0.000186,0.000125
1492.674833,0.002308,0.000448,0.000107
1534.072338,0.002154,0.000152,0.000077
1504.14541,0.002148,0.000417,0.000125
1462.328792,0.001895,0.000127,0.000087
1436.240398,0.002466,0.000834,0.000109
1520.988265,0.002143,0.000302,0.000138
1653.133528,0.002576,0.00377,0.00013
1620.612041,0.002308,0.000389,0.000108
1526.913621,0.002013,0.000149,0.000075
1554.752897,0.002359,0.000252,0.000129
1550.666678,0.002415,0.000172,0.000123
1558.433925,0.002118,0.000369,0.000098
1596.568932,0.002159,0.000254,0.000118
1685.59815,0.002115,0.000189,0.000121
1635.071649,0.002232,0.000182,0.000135
1614.628336,0.002609,0.001694,0.000154
1622.454493,0.003073,0.001993,0.000155
1604.640125,0.002812,0.000726,0.000163
1583.92832,0.00224,0.000471,0.000119
1580.850698,0.002421,0.000211,0.000133
1828.285379,0.002079,0.000138,0.00009
1696.110168,0.001996,0.000165,0.00012
1682.024242,0.002041,0.000188,0.000084
1619.279803,0.002059,0.000213,0.000101
1662.414355,0.00227,0.000202,0.000294
1638.374619,0.002225,0.000161,0.000091
1689.410266,0.002604,0.000286,0.000125
1684.590678,0.002555,0.001369,0.000132
1616.760665,0.002159,0.000183,0.00012
1799.461495,0.002452,0.000326,0.000122
1665.142237,0.002419,0.000457,0.000139
1624.929096,0.002987,0.000698,0.000199
1730.908034,0.003087,0.002143,0.000124
1713.296671,0.002779,0.00096,0.00015
1893.664124,0.003055,0.002545,0.000173
1899.142659,0.002428,0.000871,0.000116
1883.304192,0.002882,0.003711,0.000154
1807.771384,0.002272,0.000198,0.000151
1721.32072,0.002063,0.000156,0.000107
1792.756692,0.002125,0.000194,0.00009
1812.558562,0.002187,0.00024,0.00011
1766.913213,0.002293,0.000311,0.000143
1822.923528,0.002071,0.000216,0.000109
1813.88158,0.002418,0.000554,0.000139
1833.636511,0.003171,0.002508,0.000202
1877.670306,0.002427,0.000258,0.00015
1896.728041,0.002407,0.000276,0.000131
1884.782342,0.003291,0.001602,0.000173
1866.945999,0.003116,0.001283,0.000202
1836.061801,0.003496,0.006559,0.000152
1873.068484,0.00296,0.000589,0.00016
1843.308232,0.002808,0.000783,0.000178
1902.112913,0.003075,0.003317,0.000132
1936.551646,0.003321,0.003474,0.000133
1904.239345,0.002883,0.001728,0.000155
1906.06167,0.002435,0.00032,0.000133
1920.476927,0.002321,0.000691,0.000133
1884.982311,0.002531,0.000634,0.00017
1955.865341,0.002275,0.000207,0.000141
1878.3648,0.003233,0.002342,0.000146
1964.992913,0.00296,0.002763,0.000141
1942.079085,0.002398,0.000244,0.000142
1884.150455,0.002701,0.002402,0.000127
1881.655649,0.002818,0.002091,0.000125
1886.82358,0.00261,0.000414,0.00013
1940.457209,0.002718,0.001393,0.000129
1990.985549,0.002606,0.000959,0.000144
2000.615089,0.002802,0.001884,0.000134
2075.101871,0.002542,0.001069,0.000173
2041.07201,0.002721,0.002159,0.000167
1918.532205,0.002728,0.000649,0.00016
1903.389595,0.003021,0.002437,0.000155
1964.047852,0.002778,0.001436,0.000164
1936.50349,0.003008,0.002229,0.000159
1966.47739,0.003075,0.002148,0.000163
2039.825836,0.003175,0.002448,0.00017
1977.792847,0.002993,0.001256,0.000153
1970.157028,0.003068,0.001395,0.000142
1986.549459,0.00282,0.000797,0.000168
1859.300294,0.002911,0.006333,0.000157
1906.966813,0.002292,0.000175,0.000227
1895.127949,0.002373,0.000781,0.000135
1871.546892,0.002247,0.00017,0.000159
1871.155912,0.002099,0.000295,0.000147
1904.380296,0.002478,0.000547,0.000164
1846.234461,0.0032,0.007612,0.000141
1961.596428,0.002631,0.000486,0.000129
1856.638232,0.002663,0.000617,0.000165
1893.819864,0.002171,0.000239,0.000125
1851.283293,0.002181,0.000206,0.000152
1863.371134,0.002293,0.00018,0.000167
1890.347485,0.002089,0.000404,0.000159
1870.300813,0.002136,0.000142,0.000101
1836.836763,0.002152,0.000382,0.000099
1838.469889,0.002242,0.000265,0.000124
1960.942523,0.002159,0.000194,0.000116
1961.875527,0.002935,0.00531,0.000181
1976.639489,0.002142,0.000242,0.000123
1904.84171,0.002542,0.000593,0.000123
2009.153712,0.003239,0.002208,0.000136
1955.737894,0.002857,0.000539,0.000147
1957.857122,0.003279,0.005324,0.000157
1974.025356,0.002815,0.00115,0.000128
1907.50401,0.002946,0.001271,0.000126
1934.582917,0.002847,0.001635,0.000165
1939.663343,0.002798,0.000592,0.000166
1921.558075,0.002854,0.000929,0.000149
1926.884248,0.002998,0.001,0.000188
1963.115585,0.003377,0.003804,0.000187
2031.043312,0.002975,0.002327,0.000156
1997.959884,0.002824,0.000728,0.000184
1976.8376,0.002923,0.0021,0.000196
1967.434818,0.003031,0.000567,0.000239
2006.951216,0.002875,0.001411,0.000154
2002.876437,0.003207,0.001651,0.000174
1895.67954,0.002994,0.000623,0.000171
1972.201393,0.003055,0.002389,0.000196
1960.968751,0.002772,0.000422,0.000172
1933.351756,0.002726,0.000398,0.00014
1936.995608,0.002855,0.000813,0.000153
1943.727232,0.002817,0.001147,0.000135
1949.100939,0.002988,0.000938,0.00017
1892.999814,0.003105,0.002976,0.00015
1885.413505,0.002775,0.000339,0.000153
2010.636118,0.003096,0.002592,0.000209
2023.389209,0.00302,0.001637,0.000162
2086.059488,0.003076,0.002039,0.000172
2057.290866,0.003118,0.000966,0.000178
2065.934702,0.003155,0.002145,0.000165
2046.926825,0.002402,0.00037,0.000181
2052.531094,0.002423,0.000276,0.00016
2037.139226,0.002993,0.001732,0.000198
2005.727107,0.003231,0.001443,0.000248
1979.686523,0.003182,0.001016,0.00018
1993.085467,0.002854,0.001524,0.000167
2164.088569,0.003007,0.002031,0.000235
2123.839311,0.003221,0.001955,0.000171
2137.739998,0.003135,0.00259,0.000131
1990.393774,0.002929,0.000419,0.00017
1979.794126,0.003195,0.007625,0.000208
2034.065908,0.00272,0.003273,0.000159
2047.613987,0.002246,0.00017,0.000117
2028.67546,0.002441,0.000604,0.000144
2036.356565,0.002608,0.002073,0.000137
2108.326171,0.002227,0.000148,0.000091
2043.366125,0.002281,0.000295,0.000109
2005.208218,0.002364,0.000703,0.000141
2048.703079,0.002308,0.000407,0.000129
2014.729868,0.002779,0.004059,0.000107
2077.600429,0.002764,0.002046,0.000129
2074.631719,0.002414,0.000502,0.000109
2148.007206,0.002646,0.001002,0.00016
2124.919123,0.003514,0.006834,0.000218
2043.432174,0.003024,0.003488,0.000142
2060.144445,0.003453,0.002196,0.000148
2069.125025,0.003316,0.003109,0.000149
2019.557598,0.003128,0.002173,0.00017
2151.767457,0.003385,0.006415,0.00017
2109.195528,0.002897,0.001091,0.000171
2090.774183,0.003144,0.003407,0.000158
2101.58582,0.003001,0.001824,0.000158
2114.894048,0.003009,0.001873,0.000239
2168.22603,0.003087,0.003756,0.000138
2206.114084,0.002884,0.000669,0.000125
2140.284611,0.003288,0.007758,0.000145
2191.836998,0.003386,0.006708,0.00018
2124.287259,0.003364,0.008165,0.000144
2199.974698,0.003169,0.004015,0.000143
2182.509781,0.003158,0.003443,0.000137
2118.234533,0.002957,0.002307,0.000156
2131.054908,0.003176,0.007265,0.000158
2112.897297,0.003212,0.005601,0.00012
2005.93647,0.003283,0.008166,0.00016
2133.865287,0.003092,0.004383,0.000127
2156.403925,0.003129,0.003336,0.000136
2196.797354,0.003399,0.00465,0.000107
2217.389266,0.003136,0.003178,0.000111
2143.654775,0.003472,0.006986,0.000153
2136.955834,0.003037,0.001509,0.000135
2122.279229,0.003108,0.001867,0.000134
2227.751354,0.003216,0.005963,0.000162
2253.091937,0.003444,0.009728,0.000158
2219.4316,0.00354,0.007961,0.000156
2201.137805,0.003609,0.008319,0.000163
2148.064907,0.00373,0.012524,0.000113
2220.856807,0.003624,0.010011,0.000141
2181.890873,0.003527,0.011107,0.000117
2162.201746,0.003356,0.00616,0.000118
2275.192054,0.002706,0.001807,0.000132
2209.927968,0.003615,0.010411,0.000162
2187.985882,0.003322,0.003851,0.000144
2210.846907,0.004204,0.020949,0.000054
2324.124021,0.003918,0.013546,0.000064
2322.090785,0.003141,0.005113,0.000105
2288.504984,0.003265,0.008465,0.000188
2255.932312,0.003285,0.007593,0.000147
2274.143741,0.00334,0.007572,0.000135
2355.243791,0.003294,0.004957,0.000201
2325.870862,0.003491,0.007797,0.0002
2248.188263,0.003601,0.011765,0.00014
2296.26377,0.004367,0.018681,0.000119
2229.455795,0.003712,0.009091,0.000134
2297.16859,0.003787,0.011147,0.000112
2271.053314,0.003698,0.014247,0.000125
2242.217196,0.00423,0.017224,0.000165
2161.413438,0.004581,0.027297,0.000137
2233.539089,0.004134,0.018054,0.000169
2263.252371,0.003704,0.009224,0.000144
2154.83941,0.003473,0.007223,0.000176
2188.505223,0.003268,0.004768,0.000133
2212.599771,0.003465,0.00627,0.000159
2277.093399,0.003854,0.014066,0.000131
2256.51604,0.003282,0.00436,0.000157
2240.950651,0.003277,0.002847,0.000146
2234.369436,0.00436,0.024837,0.000128
2231.506297,0.003691,0.011464,0.000135
2294.640105,0.003588,0.01069,0.000122
2386.06861,0.003654,0.010183,0.000139
2278.161979,0.003281,0.006533,0.000106
2279.534758,0.003553,0.008436,0.000174
2175.357983,0.004168,0.022385,0.000139
2337.98532,0.003625,0.01181,0.000127
2400.726468,0.003708,0.012214,0.000154
2298.528308,0.003562,0.00854,0.000163
2314.676277,0.003742,0.013718,0.000173
2353.066213,0.003781,0.013873,0.000156
2315.250202,0.003876,0.012983,0.000141
2305.652957,0.003734,0.009493,0.000151
2427.184158,0.003696,0.008456,0.000167
2307.374721,0.003863,0.01429,0.000155
2412.779673,0.003668,0.011698,0.000165
2271.980654,0.004059,0.017408,0.000168
2310.98161,0.0039,0.013733,0.000136
2315.408339,0.003548,0.009277,0.000172
2256.289834,0.004572,0.025058,0.000137
2350.674312,0.003709,0.011765,0.000158
2309.527668,0.003791,0.013469,0.000152
2353.122485,0.004051,0.012732,0.000144
2248.06248,0.003606,0.012063,0.000135
2307.691535,0.003751,0.011714,0.000162
2313.004292,0.003768,0.011599,0.000134
2298.06554,0.003819,0.012411,0.00015
2389.568803,0.00415,0.015192,0.000183
2298.211001,0.003842,0.015302,0.000103
2171.761884,0.004539,0.026117,0.000134
2264.937271,0.004742,0.027113,0.000153
2304.549723,0.003847,0.015745,0.00013
2282.853605,0.003732,0.010963,0.000131
2333.824727,0.005044,0.030151,0.000132
2313.683619,0.004292,0.021419,0.000139
2320.075425,0.00467,0.028825,0.000128
2384.648916,0.003994,0.013872,0.000144
2417.264336,0.004095,0.015476,0.000116
2371.05952,0.003904,0.012514,0.000148
2327.69321,0.00392,0.015643,0.00013
2300.855035,0.003491,0.010394,0.000146
2481.36866,0.003849,0.012337,0.000148
2450.242957,0.004058,0.015158,0.00014
2332.998658,0.004109,0.01682,0.000159
2384.870489,0.004044,0.016434,0.000151
2454.941356,0.002782,0.004652,0.000118
2385.062032,0.002161,0.000224,0.000116
2476.222434,0.002209,0.000353,0.000127
2546.234598,0.002461,0.004753,0.000116
2495.671789,0.002866,0.009095,0.000107
2401.706961,0.003844,0.017476,0.000121
2394.798499,0.003549,0.008489,0.000112
2329.562267,0.004029,0.019269,0.000112
2331.286201,0.004217,0.020349,0.000127
2358.850283,0.004101,0.01455,0.000117
2285.238793,0.004612,0.024817,0.000126
2300.565708,0.004572,0.022475,0.000146
2315.876288,0.004396,0.020951,0.00012
2268.268431,0.004292,0.028273,0.000121
2473.773425,0.002227,0.000719,0.000116
2381.077774,0.004417,0.023402,0.000138
2366.684262,0.004047,0.018371,0.00013
2371.606867,0.004084,0.018358,0.000137
2419.780939,0.00364,0.006861,0.000154
2394.789863,0.004602,0.028848,0.000164
2368.396976,0.003577,0.007219,0.000146
2329.838858,0.004481,0.02448,0.000122
2362.42923,0.004291,0.022596,0.000121
2259.522009,0.005672,0.049505,0.000129
2243.738244,0.005033,0.031537,0.000141
2258.210944,0.005061,0.033185,0.000085
2573.556655,0.003349,0.013044,0.000108
2501.212866,0.003906,0.019402,0.000111
2383.917347,0.00482,0.033118,0.000092
2363.626584,0.004349,0.021794,0.000102
2275.497447,0.004743,0.031273,0.000123
2424.198996,0.004472,0.026422,0.000138
2455.923083,0.004185,0.020355,0.000137
2326.697397,0.004863,0.031169,0.0001
2302.743108,0.005522,0.045031,0.000075
2372.75425,0.004039,0.018218,0.000081
2404.830764,0.004214,0.017047,0.000159
2364.60346,0.004324,0.02365,0.000114
2397.197784,0.003811,0.012644,0.000109
2514.178425,0.003618,0.013987,0.000138
2398.794406,0.004193,0.019964,0.00011
2402.889425,0.004574,0.023567,0.000107
2450.131053,0.004479,0.022391,0.000125
2420.599185,0.004145,0.018508,0.000103
2296.037185,0.00477,0.031968,0.000099
2376.561536,0.004618,0.026589,0.000101
2376.524358,0.003281,0.014797,0.000069
2364.105077,0.003772,0.018822,0.000119
2427.461055,0.0031,0.007951,0.000109
2371.820897,0.004336,0.01994,0.000185
2386.933129,0.004283,0.023394,0.00011
2376.177847,0.004476,0.027821,0.000073
2332.196774,0.004372,0.023349,0.000098
2384.765429,0.003962,0.013919,0.000138
2322.802611,0.004434,0.028945,0.000097
2452.495066,0.004587,0.02667,0.000093
2434.140459,0.004503,0.025558,0.000115
2388.721743,0.004383,0.02574,0.000103
2325.594261,0.00503,0.03829,0.000109
2427.653722,0.004109,0.017616,0.000086
2492.322013,0.003505,0.009123,0.000092
2352.903103,0.004723,0.031148,0.000076
2412.565947,0.004607,0.024786,0.000089
2301.695786,0.004682,0.033193,0.000056
2545.786617,0.00221,0.000612,0.000094
2476.204967,0.00382,0.013693,0.000116
2345.564966,0.004505,0.025961,0.000125
2432.704019,0.004224,0.021632,0.00009
2367.89933,0.004087,0.020047,0.000095
2402.176556,0.003927,0.017819,0.000107
2370.314514,0.004133,0.019206,0.000098
2366.949511,0.00481,0.031042,0.000094
2287.443335,0.004584,0.026693,0.000112
2513.772809,0.002324,0.002494,0.000099
2404.508695,0.00322,0.008831,0.000133
2296.632264,0.004551,0.0217,0.000098
2225.112944,0.005772,0.05057,0.000113
2355.209423,0.005004,0.034243,0.000081
2426.772191,0.004508,0.026707,0.000164
2388.351333,0.003866,0.014403,0.000138
2461.038593,0.003816,0.011544,0.000125
2422.050561,0.004226,0.020408,0.000102
2333.518028,0.004984,0.033404,0.000088
2333.781232,0.004489,0.025802,0.000081
2325.002808,0.004941,0.036128,0.000115
2428.677889,0.004158,0.017621,0.000094
2451.699569,0.004965,0.036862,0.000092
2373.691344,0.003935,0.020347,0.000104
2544.166335,0.003546,0.014392,0.000146
2491.273006,0.004904,0.035605,0.000123
2393.363376,0.00463,0.028913,0.000083
2340.468035,0.004452,0.024795,0.000078
2449.278941,0.004215,0.023169,0.000082
2532.808429,0.004418,0.02475,0.000111
2379.549786,0.003736,0.014846,0.000127
2358.107729,0.005446,0.045776,0.000077
2419.426516,0.004643,0.032808,0.000088
2555.032925,0.004681,0.034469,0.000093
2365.04684,0.004466,0.023915,0.0001
2433.353428,0.004404,0.024998,0.000084
2385.62239,0.004557,0.028985,0.000098
2341.884544,0.004896,0.034147,0.000094
2476.863554,0.004522,0.027728,0.000081
2418.442696,0.004082,0.016719,0.00008
2422.005505,0.005081,0.036078,0.000095
2496.003579,0.004376,0.020705,0.000108
2439.464984,0.004703,0.027567,0.000113
2395.657521,0.004867,0.035727,0.00009
2467.082017,0.004312,0.025761,0.000075
2487.138841,0.004304,0.02551,0.000115
2424.937582,0.005688,0.050686,0.000063
2206.044757,0.005964,0.058023,0.000095
2510.33706,0.003711,0.022312,0.000088
2515.565401,0.004164,0.021536,0.000132
2500.107301,0.004372,0.024554,0.000092
2558.653426,0.004717,0.032005,0.00011
2551.544707,0.004868,0.031293,0.000087
2522.781922,0.004587,0.025065,0.000122
2503.147013,0.004378,0.029395,0.000109
2586.521124,0.004275,0.027004,0.000098
2567.183755,0.004649,0.029791,0.00011
2466.70641,0.005083,0.03743,0.000091
2574.920506,0.003437,0.016926,0.000108
2568.75164,0.004744,0.03105,0.000129
2445.426423,0.005055,0.04184,0.000132
2417.258661,0.005095,0.039273,0.000114
2575.916929,0.005323,0.04601,0.000123
2247.689483,0.005663,0.054245,0.000073
2409.859605,0.005099,0.040989,0.000101
2557.740384,0.004331,0.022005,0.000173
2514.431865,0.004489,0.026878,0.000115
2549.031893,0.004527,0.029825,0.000098
2603.378098,0.003741,0.011416,0.000109
2679.262777,0.00358,0.01265,0.000141
2710.323172,0.003798,0.017594,0.00016
2540.211467,0.004407,0.024514,0.000133
2513.855812,0.004399,0.021298,0.000091
2570.058241,0.004058,0.018806,0.000128
2537.348876,0.004203,0.019377,0.000138
2530.552412,0.004278,0.02184,0.000105
2486.73994,0.004268,0.021188,0.000135
2497.000943,0.004562,0.027944,0.000144
2570.225597,0.003615,0.016591,0.000118
2463.656942,0.004703,0.031585,0.000101
2426.273793,0.00484,0.036744,0.000107
2452.609969,0.004487,0.023959,0.00013
2490.286364,0.004298,0.022856,0.000134
2538.536965,0.0037,0.014392,0.000147
2440.294184,0.004397,0.023766,0.000102
2345.558607,0.004874,0.029174,0.000083
2454.293722,0.003826,0.014132,0.000117
2479.73734,0.004023,0.016524,0.000123
2457.518427,0.004516,0.023801,0.000131
2430.572815,0.004228,0.016573,0.000082
2603.370993,0.002195,0.000402,0.000109
2460.355915,0.003878,0.016374,0.00011
2386.853018,0.004381,0.023662,0.000095
2543.228299,0.003742,0.018622,0.000157
2518.457517,0.00426,0.023852,0.000181
2352.672159,0.004196,0.023053,0.00011
2417.022072,0.003767,0.011133,0.000123
2558.439775,0.003164,0.008583,0.000155
2307.350492,0.004457,0.025563,0.000158
2430.001816,0.003504,0.017014,0.000112
2446.88108,0.004076,0.016555,0.000119
2391.750677,0.003908,0.013464,0.000159
2281.181554,0.004149,0.020692,0.000165
2243.512706,0.004261,0.019519,0.00014
2302.138031,0.003349,0.008746,0.000129
2223.644929,0.003433,0.007029,0.000131
2201.531446,0.003801,0.011691,0.000123
2273.902052,0.004002,0.014375,0.000118
2335.764282,0.003316,0.008785,0.000146
2276.834596,0.004444,0.025295,0.000129
2308.116419,0.003577,0.006551,0.000174
2286.983068,0.003619,0.007284,0.000167
2153.508976,0.003173,0.00423,0.000142
2223.557959,0.003658,0.010113,0.00014
2193.749083,0.004012,0.020103,0.000152
2143.356853,0.003553,0.010447,0.000132
2165.498855,0.003427,0.006483,0.000123
2116.259734,0.003842,0.010634,0.000137
2099.954797,0.00399,0.016063,0.000131
2077.484465,0.004009,0.013493,0.000122
2061.04038,0.0034,0.008639,0.000133
2060.633405,0.003723,0.010774,0.000115
1994.514561,0.004923,0.027425,0.000089
2043.539584,0.003215,0.006539,0.000143
2012.038296,0.002078,0.000726,0.000171
1999.335621,0.002021,0.00018,0.000095
1994.676458,0.002012,0.000309,0.000139
1928.995548,0.00328,0.007162,0.000112
1984.788558,0.003245,0.0058,0.000155
1959.136462,0.002059,0.000172,0.000114
1975.281858,0.002484,0.002965,0.00013
2049.362372,0.002184,0.000284,0.000092
2050.899004,0.002106,0.000141,0.000101
2021.526923,0.002174,0.000451,0.000087
1968.703164,0.002077,0.000293,0.000111
1992.98058,0.002124,0.000292,0.000108
2023.694113,0.002062,0.000433,0.000102
1884.176773,0.002153,0.000265,0.000049
1879.119922,0.002178,0.000439,0.000157
1934.750838,0.002175,0.000227,0.000087
1869.420469,0.002604,0.000624,0.000076
1845.796983,0.002019,0.000358,0.000082
1871.586449,0.002093,0.000499,0.000097
1830.122924,0.00213,0.000946,0.0001
1837.650901,0.002361,0.00065,0.000154
1824.619533,0.002763,0.002597,0.000083
1800.854506,0.003141,0.007468,0.000158
1830.578595,0.002277,0.000263,0.000105
1743.458696,0.00292,0.00373,0.000102
1743.345921,0.003337,0.00424,0.000217
1787.67748,0.003534,0.005413,0.000224
1741.663932,0.003845,0.014584,0.000147
1801.498462,0.004147,0.009728,0.000121
1752.674537,0.003359,0.00647,0.000144
1753.435754,0.002332,0.000337,0.000113
1704.299401,0.002688,0.000863,0.000091
1644.017056,0.002582,0.001278,0.00018
1607.564225,0.002455,0.001312,0.000133
1631.812613,0.002126,0.000159,0.000125
1598.77207,0.002051,0.000176,0.000093
1536.502861,0.002125,0.000776,0.000115
1548.47192,0.001981,0.000127,0.000077
1511.365085,0.002112,0.000124,0.000084
1588.951803,0.002064,0.000201,0.000103
1594.057786,0.002301,0.000951,0.000091
1535.347807,0.002292,0.000194,0.000111
1598.756549,0.003034,0.002709,0.000078
1604.487735,0.002534,0.001412,0.000105
1554.14402,0.002217,0.000285,0.000117
1476.702957,0.001889,0.000133,0.000081
1497.389087,0.00202,0.000234,0.000111
1571.692766,0.001972,0.000131,0.000078
1532.523186,0.002118,0.000479,0.000064
1471.338193,0.002881,0.001664,0.000127
1536.288754,0.001992,0.00016,0.000083
1456.447716,0.00196,0.000113,0.000051
1438.384124,0.001962,0.000122,0.000123
1447.784318,0.001969,0.000154,0.000127
1483.704106,0.002453,0.001589,0.000103
1433.429325,0.002026,0.000817,0.000108
1438.709238,0.002089,0.000147,0.000096
1472.763171,0.002141,0.000473,0.000082
1351.603933,0.002662,0.001605,0.000121
1342.33091,0.002535,0.000181,0.000155
1377.960804,0.002426,0.000947,0.000085
1415.242805,0.002328,0.000299,0.000079
1398.082357,0.002632,0.003103,0.000121
1387.335296,0.003003,0.002423,0.000143
1373.15675,0.002944,0.003469,0.000112
1374.390699,0.001984,0.001539,0.000087
1413.97158,0.002044,0.000187,0.000098
1381.155009,0.002391,0.0019,0.000085
1375.118291,0.002495,0.00211,0.000107
1415.836878,0.00224,0.000609,0.000074
1369.393486,0.001945,0.000195,0.000068
1472.675511,0.002215,0.000974,0.000088
1462.916699,0.001954,0.000364,0.000095
1458.658932,0.002177,0.000162,0.000085
1469.965285,0.002218,0.001888,0.00008
1426.396359,0.001977,0.000113,0.000097
1515.452449,0.002182,0.000193,0.000097
1475.967169,0.002023,0.000411,0.000053
1410.115965,0.002047,0.000123,0.000056
1411.101233,0.002039,0.000129,0.000055
1426.689004,0.002347,0.000835,0.000087
1427.04484,0.002312,0.000859,0.000093
1469.24836,0.002149,0.000687,0.000095
1389.024203,0.001847,0.00014,0.000082
1431.391215,0.002667,0.002587,0.000123
1396.40376,0.002374,0.002285,0.0001
1488.90063,0.002128,0.000402,0.000112
1420.156467,0.001882,0.000128,0.000068
1476.503644,0.002549,0.002482,0.000087
1443.72474,0.002,0.000206,0.000079
1462.581607,0.002213,0.001355,0.000083
1395.531219,0.002066,0.00054,0.000082
1356.651646,0.002027,0.000238,0.000086
1349.245031,0.001934,0.000153,0.000079
1341.736631,0.002204,0.001134,0.000069
1368.721606,0.001826,0.000091,0.00008
1360.588378,0.001912,0.000087,0.000067
1401.084272,0.002025,0.000153,0.000099
1423.81883,0.001838,0.000129,0.000084
1399.336922,0.002039,0.000196,0.000067
1464.893176,0.001988,0.00011,0.000091
1437.111775,0.001998,0.000152,0.000074
1410.479704,0.001911,0.000124,0.000077
1393.771451,0.001909,0.000104,0.000072
1340.247309,0.001963,0.000103,0.000083
1398.946348,0.001962,0.000093,0.000089
1417.264606,0.001876,0.000133,0.000071
1392.739377,0.001978,0.000146,0.000092
1355.880011,0.002268,0.000382,0.000092
1404.123194,0.002003,0.000092,0.00012
1364.817459,0.001931,0.000209,0.000097
1321.596466,0.00193,0.00041,0.000097
1381.195436,0.001916,0.000184,0.000079
1396.497543,0.002273,0.001627,0.000081
1427.412975,0.00205,0.000278,0.000098
1382.564643,0.002772,0.001136,0.000097
1395.710081,0.002022,0.000144,0.000091
1368.291662,0.001996,0.000112,0.000088
1383.699485,0.001966,0.00013,0.000094
1417.705848,0.001915,0.000132,0.000076
1288.47457,0.001925,0.001188,0.000079
1378.550618,0.001996,0.000426,0.000079
1369.808181,0.001911,0.00017,0.000078
1313.103716,0.00203,0.000527,0.000076
1305.709817,0.001981,0.000132,0.000079
1325.349167,0.002142,0.000366,0.000085
1310.652928,0.002901,0.00555,0.000114
1378.044173,0.002361,0.001646,0.000092
1404.846043,0.002106,0.000123,0.000096
1357.440499,0.002341,0.000218,0.000097
1374.229206,0.001954,0.000156,0.000078
1380.344232,0.002306,0.000146,0.000097
1364.141844,0.001799,0.000101,0.000077
1346.519359,0.001963,0.000161,0.000077
1278.078441,0.001988,0.000197,0.000073
1336.510466,0.002007,0.000197,0.000062
1423.57456,0.001883,0.000206,0.000085
1359.681394,0.002089,0.000142,0.000104
1270.726282,0.002051,0.000113,0.000091
1235.296435,0.002368,0.000139,0.000107
1343.141174,0.001909,0.000135,0.000069
1318.317492,0.00194,0.000117,0.00006
1285.491229,0.002213,0.000325,0.000074
1284.197608,0.002016,0.000478,0.000081
1260.499549,0.002046,0.000577,0.00007
1269.518898,0.002105,0.000128,0.000094
1306.983148,0.001907,0.000237,0.000103
1265.742755,0.001961,0.00023,0.000074
1258.783217,0.001937,0.000103,0.000081
1223.292838,0.002035,0.000099,0.000096
1244.454194,0.002013,0.000843,0.000074
1214.235199,0.002126,0.000294,0.000087
1207.95799,0.001999,0.000278,0.000089
1238.513086,0.001885,0.000336,0.000077
1331.23543,0.001935,0.000309,0.000075
1264.879028,0.002199,0.000692,0.000075
1173.860202,0.002215,0.003502,0.000079
1256.902253,0.002307,0.000368,0.000081
1264.27855,0.002206,0.000116,0.000092
1188.70368,0.001994,0.000133,0.000096
1219.118342,0.002051,0.000203,0.000105
1236.511991,0.002027,0.000346,0.000087
1312.218818,0.001948,0.000579,0.000077
1229.639021,0.001894,0.000355,0.000078
1302.472791,0.002219,0.000652,0.000092
1254.72309,0.002838,0.00431,0.000092
1144.461324,0.003177,0.005576,0.000087
1133.590813,0.001912,0.000177,0.000072
1197.037553,0.001793,0.000109,0.000059
1118.707625,0.001721,0.0001,0.000068
1214.320001,0.001968,0.000309,0.000075
1137.112132,0.00183,0.000088,0.000065
1163.63236,0.002038,0.000243,0.00009
1197.768846,0.002057,0.000138,0.000107
1127.286241,0.001848,0.000111,0.00008
1151.869627,0.001915,0.000095,0.000065
1164.417933,0.002164,0.000152,0.000119
1149.619153,0.001984,0.000239,0.000058
1049.800392,0.002125,0.000386,0.000076
1128.125263,0.002148,0.000189,0.000086
1119.323928,0.001935,0.000115,0.000078
1119.198293,0.002332,0.00453,0.000075
1065.896879,0.002067,0.00018,0.000097
1027.398836,0.002077,0.000102,0.000058
1075.492079,0.00194,0.000365,0.000062
1107.319549,0.00195,0.000106,0.000082
1148.483448,0.002189,0.000361,0.000082
1167.901471,0.001932,0.000117,0.000092
1200.537124,0.002367,0.000609,0.000106
1113.950664,0.001996,0.000109,0.000077
1141.060484,0.001993,0.000132,0.000087
1150.537382,0.001849,0.00012,0.000076
1080.868181,0.001927,0.000097,0.000091
1180.536406,0.001891,0.000084,0.000078
1089.992886,0.001852,0.000119,0.00007
1157.247279,0.002254,0.000358,0.000093
1146.004255,0.002575,0.003719,0.000093
1277.223011,0.002034,0.000134,0.000085
1152.415979,0.001971,0.000364,0.000058
1138.621008,0.001854,0.000132,0.00006
1170.847795,0.002011,0.000095,0.00008
1235.417507,0.00226,0.000543,0.000085
1252.422772,0.002627,0.001631,0.000124
1218.944052,0.00259,0.002728,0.000104
1155.506006,0.003239,0.005769,0.000124
1112.928852,0.002854,0.003937,0.000113
1160.539485,0.002313,0.000158,0.000132
1215.599403,0.002575,0.001622,0.000115
1162.435255,0.002061,0.000107,0.000089
1088.039861,0.002053,0.000116,0.000082
1180.813599,0.002124,0.000147,0.000071
1120.210022,0.002068,0.000285,0.000061
1135.0737,0.001933,0.000316,0.000077
1062.786046,0.001985,0.000122,0.00009
1107.773401,0.001982,0.000104,0.000081
1150.564871,0.002039,0.000133,0.000083
1126.882082,0.002014,0.00015,0.000091
1219.051565,0.002263,0.000409,0.000081
1176.258765,0.001894,0.000126,0.000075
1191.807272,0.002234,0.001128,0.000092
1278.821458,0.002197,0.000146,0.000085
1185.754843,0.002083,0.000133,0.0001
1177.676822,0.001901,0.0004,0.000056
1239.59222,0.001951,0.000131,0.000079
1270.171925,0.001845,0.000095,0.000087
1228.40689,0.002091,0.000296,0.000109
1227.183919,0.00205,0.000144,0.000083
1260.650768,0.002265,0.000137,0.000105
1233.68005,0.002336,0.000709,0.000091
1221.51191,0.002421,0.000168,0.000111
1200.852059,0.002343,0.000153,0.000114
1250.932681,0.002289,0.000155,0.000121
1270.373819,0.0026,0.000931,0.000081
1302.807897,0.0022,0.000133,0.000092
1307.781803,0.002034,0.000128,0.0001
1347.561328,0.002088,0.00056,0.000095
1359.855583,0.0027,0.000203,0.000168
1344.20578,0.002625,0.000291,0.000171
1312.028796,0.002604,0.001316,0.000107
1265.180631,0.00259,0.000179,0.000104
1290.725862,0.002482,0.001863,0.000111
1330.953061,0.002518,0.000681,0.000108
1378.88091,0.002172,0.000122,0.000105
1316.179617,0.002175,0.00019,0.000112
1223.64752,0.002115,0.000132,0.000084
1300.856385,0.002283,0.000259,0.000117
1341.42955,0.002234,0.000546,0.00009
1325.705541,0.002252,0.000488,0.000116
1356.104531,0.002252,0.000158,0.000102
1419.660109,0.001989,0.00016,0.000082
1361.590763,0.002365,0.000245,0.000114
1372.066781,0.002048,0.000127,0.000089
1360.872359,0.002367,0.000461,0.000082
1375.49388,0.002728,0.000246,0.000122
1401.973025,0.002465,0.000198,0.000118
1420.696658,0.00225,0.000148,0.000075
1409.353517,0.002142,0.000137,0.000096
1406.31417,0.002043,0.000237,0.000082
1382.050159,0.00219,0.00015,0.000101
1478.220873,0.002068,0.000235,0.000076
1408.500149,0.002066,0.000174,0.00009
1395.197464,0.002198,0.000145,0.000094
1499.302291,0.002114,0.002811,0.000083
1537.086154,0.002313,0.000207,0.000119
1558.445112,0.002093,0.000818,0.000083
1484.017477,0.002167,0.000392,0.000077
1568.428809,0.002307,0.000182,0.000084
1573.843729,0.002289,0.001005,0.000088
1548.768667,0.002666,0.000386,0.000124
1473.230408,0.00248,0.001713,0.000127
1555.09353,0.002674,0.002103,0.000107
1549.133956,0.002466,0.000197,0.000116
1569.599527,0.002627,0.000204,0.000137
1526.766788,0.002736,0.001106,0.000143
1502.824325,0.002581,0.000866,0.000114
1451.179572,0.002151,0.000259,0.000081
1556.676159,0.002221,0.000525,0.000106
1633.426416,0.002,0.000143,0.000085
1482.710733,0.001874,0.000136,0.000113
1583.420782,0.002011,0.00016,0.000096
1525.503733,0.002172,0.000152,0.000091
1582.324119,0.00205,0.000172,0.000129
1566.587322,0.002004,0.000169,0.00011
1601.764796,0.00203,0.000166,0.00009
1638.810667,0.001914,0.000147,0.000107
1583.464385,0.002028,0.00019,0.000092
1684.368798,0.001834,0.000169,0.000092
1615.444787,0.001935,0.00013,0.000092
1647.865044,0.002031,0.000143,0.000091
1665.455776,0.002001,0.000156,0.000095
1656.402462,0.002156,0.000144,0.00009
1607.149273,0.002011,0.000202,0.00009
1645.094365,0.001986,0.000152,0.000112
1668.131664,0.001793,0.000134,0.000104
1667.206921,0.002159,0.00014,0.000169
1600.248839,0.00189,0.00014,0.000111
1652.117175,0.002719,0.000923,0.000047
1678.572482,0.001927,0.00016,0.000036
1658.933187,0.002666,0.00052,0.000023
1650.534621,0.002864,0.001474,0.00014
1713.803113,0.002478,0.000382,0.000113
1649.701838,0.00238,0.001328,0.000111
1679.706036,0.002053,0.000416,0.000096
1641.963713,0.002288,0.000146,0.000059
1687.940431,0.00233,0.000157,0.000089
1676.999011,0.001948,0.000149,0.000099
1770.780961,0.002513,0.00035,0.000063
1919.380505,0.002235,0.000426,0.000062
1740.574719,0.002631,0.000474,0.000079
1672.63484,0.002648,0.00073,0.000121
1756.255927,0.002629,0.000412,0.000103
1820.885204,0.002156,0.000182,0.000063
1717.200486,0.002224,0.000158,0.000098
1719.433179,0.00257,0.000615,0.000173
1802.41736,0.002696,0.000311,0.00013
1784.852439,0.002489,0.000256,0.000084
1789.635566,0.001969,0.000119,0.000068
1827.910373,0.002226,0.00071,0.000119
1803.390569,0.002757,0.000674,0.000172
1786.216501,0.002815,0.001553,0.000108
1795.3431,0.002761,0.001602,0.000188
1756.288426,0.002593,0.001153,0.000103
1750.2684,0.002238,0.000329,0.000141
1742.921286,0.002176,0.000215,0.000105
1762.788596,0.002043,0.000168,0.000117
1832.80212,0.001898,0.000156,0.000115
1819.874708,0.002051,0.000175,0.000092
1842.045794,0.00226,0.000206,0.00008
1857.705972,0.002813,0.000429,0.000165
1905.118541,0.002836,0.001512,0.000157
1825.158432,0.002429,0.000212,0.000124
1832.308052,0.002362,0.000674,0.000127
1841.479188,0.002426,0.000237,0.000154
1983.958114,0.002382,0.001442,0.000136
1794.052481,0.002606,0.002473,0.000166
1826.228814,0.00266,0.000338,0.000127
1875.531022,0.002492,0.000358,0.000139
1852.638111,0.002072,0.000172,0.000095
1861.044956,0.00218,0.000196,0.000141
1908.92141,0.002403,0.00018,0.00012
1932.39907,0.002612,0.000357,0.000166
1893.583722,0.002367,0.00028,0.00015
1914.240528,0.00277,0.002774,0.000192
1914.367462,0.002818,0.000493,0.000145
1895.6033,0.002701,0.000976,0.000117
1965.538093,0.002291,0.000232,0.000179
1955.801365,0.002211,0.000964,0.000144
1917.104714,0.003102,0.001042,0.000125
1943.661159,0.002868,0.000888,0.000208
1948.267737,0.002819,0.000632,0.000146
1884.035343,0.002883,0.001097,0.000189
1957.637601,0.002699,0.000786,0.000183
1962.046114,0.002652,0.000443,0.000139
1948.929324,0.002756,0.001396,0.000132
1929.266661,0.002956,0.001689,0.000155
1960.475084,0.00333,0.004291,0.000201
2014.773087,0.003371,0.002786,0.000193
1934.761519,0.003085,0.001994,0.000148
1923.584107,0.002851,0.001052,0.000136
1946.289527,0.003037,0.001105,0.000126
1984.473916,0.002854,0.00108,0.000122
1941.890182,0.002934,0.000803,0.000342
1991.620295,0.002834,0.000529,0.000139
2023.282566,0.003054,0.001969,0.000153
1966.625296,0.002407,0.000228,0.00013
1944.89633,0.002973,0.001161,0.000162
1937.789621,0.002553,0.000276,0.000161
2009.87152,0.002215,0.000216,0.000131
2083.42787,0.002613,0.000309,0.000131
2049.16361,0.00338,0.005033,0.00016
2034.246157,0.002828,0.001175,0.000168
2036.365915,0.002999,0.001775,0.000153
2004.590841,0.003446,0.006459,0.000173
1978.162986,0.003143,0.001377,0.000186
2009.153608,0.003072,0.000511,0.000176
2060.910721,0.002883,0.002059,0.000186
2064.809216,0.002889,0.001063,0.000204
2023.46791,0.002539,0.000357,0.000141
2003.973389,0.002983,0.001728,0.000172
2092.596068,0.00279,0.000951,0.000166
2084.892036,0.002912,0.002584,0.000144
2067.622941,0.002775,0.000828,0.000144
2075.314104,0.002836,0.000611,0.000184
2065.150416,0.003342,0.004999,0.00015
2044.798819,0.00308,0.001123,0.000218
2049.345893,0.003074,0.00165,0.000145
2082.373092,0.0029,0.001555,0.000138
2103.582803,0.002827,0.001665,0.000132
2162.150456,0.00314,0.002304,0.000146
2059.50828,0.003224,0.00396,0.000229
2055.278358,0.003122,0.001758,0.000125
2002.066065,0.002892,0.001842,0.000158
1881.201214,0.002692,0.001713,0.000143
1937.039919,0.003113,0.001465,0.000176
1912.793468,0.002914,0.00138,0.000124
1875.815413,0.00281,0.000462,0.000213
1968.366022,0.002912,0.005038,0.000121
1996.556081,0.003019,0.001465,0.000134
2025.594425,0.002717,0.000383,0.000151
1996.975172,0.002722,0.001726,0.000169
2024.196197,0.002243,0.000247,0.000127
2055.917241,0.002837,0.001048,0.000191
2056.218007,0.003122,0.002884,0.000147
1952.756754,0.003128,0.003363,0.000147
1975.208158,0.003437,0.001329,0.000203
2043.246257,0.003263,0.001783,0.000184
1997.864773,0.003047,0.002246,0.000177
1998.112776,0.00292,0.002568,0.000184
2067.99721,0.003015,0.001338,0.000203
2024.506394,0.002364,0.000245,0.000204
2046.650596,0.002414,0.000692,0.000114
2044.529524,0.003434,0.002975,0.00018
2048.016787,0.00241,0.000273,0.000153
1956.553099,0.003102,0.001676,0.000175
2143.43848,0.003102,0.000876,0.000183
2050.673661,0.002869,0.001161,0.000152
2094.82974,0.003084,0.002437,0.00016
2069.763836,0.002529,0.000817,0.000123
2047.622533,0.00292,0.002405,0.000133
2036.936372,0.002803,0.000687,0.000169
2042.381305,0.002757,0.000607,0.000146
2052.242292,0.002984,0.00433,0.000154
2008.860036,0.002573,0.000298,0.000128
2033.580396,0.003089,0.001739,0.000146
2050.667283,0.003074,0.002288,0.000218
2004.746639,0.002858,0.000353,0.000154
2070.669446,0.003103,0.003886,0.000157
2060.602596,0.003044,0.001623,0.000114
2005.206587,0.003053,0.002664,0.000124
2037.008154,0.002809,0.001819,0.000115
2042.047165,0.002552,0.000412,0.000168
2129.218679,0.003274,0.001249,0.000213
2030.166653,0.003191,0.003027,0.00016
2036.769776,0.003248,0.001133,0.00012
2143.124082,0.00253,0.00033,0.000106
2041.083762,0.002562,0.001156,0.000136
2106.594956,0.002556,0.001475,0.000138
2138.154848,0.002158,0.000338,0.00016
2089.006667,0.00326,0.001387,0.00013
2081.169786,0.003379,0.003149,0.000156
2112.314309,0.002188,0.000313,0.000118
2103.078661,0.002188,0.000283,0.000124
2188.616851,0.002275,0.000774,0.000144
2202.360849,0.002108,0.000363,0.000108
2112.964782,0.003209,0.004084,0.000143
2114.425134,0.00254,0.000863,0.000122
2092.942878,0.002579,0.000855,0.000149
2095.386269,0.002752,0.003301,0.000101
2133.129834,0.002701,0.001988,0.000126
2123.868258,0.002096,0.000247,0.000121
2168.296263,0.002129,0.000282,0.000088
2126.600572,0.001937,0.000134,0.000098
2035.11904,0.001965,0.000171,0.000082
2119.787723,0.002133,0.000221,0.000104
2054.746045,0.001919,0.001058,0.000094
2099.59256,0.002504,0.002383,0.00014
2128.799481,0.003129,0.000985,0.000175
2170.839251,0.003149,0.00179,0.000186
2107.956021,0.003119,0.002598,0.00016
2109.911615,0.003216,0.003359,0.000172
2080.259814,0.003589,0.009007,0.000125
2175.504044,0.003068,0.00142,0.00012
2219.380891,0.003047,0.001875,0.000138
2091.606852,0.002873,0.002263,0.000154
2175.135949,0.002379,0.00026,0.000116
2267.381634,0.002121,0.000402,0.000109
2170.4697,0.002158,0.000185,0.000103
2188.911008,0.002153,0.000302,0.000107
2211.482837,0.002084,0.00024,0.000086
2169.114143,0.002366,0.001118,0.000086
2162.899055,0.002258,0.000226,0.000089
2206.801511,0.002082,0.000271,0.00009
2224.60938,0.002111,0.001867,0.00011
2246.625058,0.002229,0.00022,0.000127
2255.149493,0.002151,0.000909,0.000102
2304.892788,0.00208,0.000222,0.000088
2508.127403,0.002211,0.000541,0.000123
2266.314665,0.003335,0.013116,0.000119
2253.992123,0.002665,0.001785,0.000126
2248.218203,0.003957,0.007718,0.000181
2207.021306,0.003952,0.010921,0.000142
2166.83079,0.003199,0.005607,0.000156
2255.005466,0.003255,0.004685,0.000139
2260.38459,0.004308,0.016809,0.000174
2268.601356,0.003839,0.010528,0.00012
2226.915122,0.003315,0.006254,0.000135
2232.308658,0.003404,0.005134,0.000147
2253.756777,0.003309,0.005627,0.000148
2214.757917,0.003195,0.003792,0.00016
2231.908333,0.003529,0.00681,0.00016
2201.146553,0.003305,0.004542,0.000123
2283.651227,0.003629,0.003737,0.000174
2219.768574,0.003837,0.007092,0.000166
2216.916392,0.003664,0.006353,0.000135
2213.746869,0.004265,0.01498,0.00019
2305.971073,0.003617,0.007949,0.000146
2264.978355,0.00344,0.004676,0.000144
2150.456503,0.002932,0.002453,0.000197
2248.593849,0.003814,0.009877,0.000161
2258.31894,0.003807,0.010637,0.000142
2249.69434,0.003909,0.012953,0.000154
2241.801101,0.003771,0.010439,0.000143
2278.666214,0.003616,0.008662,0.000136
2231.331016,0.004213,0.017143,0.000138
2178.929627,0.00381,0.008266,0.000147
2248.253851,0.004002,0.011501,0.000147
2269.377825,0.003556,0.006548,0.000126
2327.500625,0.003752,0.009864,0.000139
2271.112754,0.003592,0.007147,0.000152
2252.753941,0.003541,0.007228,0.000132
2231.305932,0.003456,0.006649,0.000118
2225.022807,0.003465,0.007129,0.000132
2277.069658,0.003848,0.011793,0.000131
2154.182777,0.00354,0.007008,0.000125
2183.457183,0.003934,0.010867,0.00015
2247.548236,0.003698,0.009569,0.000119
2137.784991,0.002673,0.000466,0.000136
2153.22869,0.004292,0.019257,0.000144
2209.276641,0.0035,0.005091,0.000127
2255.18305,0.003856,0.011642,0.000161
2245.906687,0.004205,0.018374,0.00015
2248.09279,0.003593,0.008624,0.000118
2153.037647,0.004593,0.022293,0.00015
2218.478363,0.00434,0.016909,0.000191
2300.935584,0.003513,0.005501,0.000182
2289.080779,0.003605,0.007137,0.000141
2242.676589,0.003651,0.008929,0.000119
2341.412238,0.004068,0.01505,0.000149
2353.72024,0.00386,0.012032,0.000158
2338.950781,0.003455,0.007394,0.00014
2281.425301,0.002659,0.004563,0.000114
2206.61572,0.00391,0.015888,0.000126
2252.414751,0.004289,0.017692,0.000141
2260.078233,0.003732,0.00972,0.000141
2258.055128,0.004195,0.018917,0.00017
2239.679803,0.00403,0.012327,0.000214
2235.763573,0.004106,0.01354,0.000146
2224.042389,0.004934,0.030602,0.000104
2209.907646,0.004544,0.020149,0.000136
2278.178582,0.003903,0.014429,0.000115
2236.129389,0.003775,0.010096,0.000139
2231.151538,0.003439,0.005746,0.000146
2206.321165,0.004011,0.01955,0.000121
2230.240169,0.003527,0.007023,0.000125
2262.959811,0.003711,0.010828,0.00015
2110.999169,0.003866,0.010202,0.000147
2208.731171,0.003702,0.006698,0.000126
2197.252281,0.004082,0.015854,0.000135
2206.750048,0.004151,0.014844,0.000166
2179.405561,0.004817,0.029593,0.000116
2187.341754,0.004755,0.027087,0.000119
2299.640438,0.00354,0.005405,0.000147
2253.790898,0.004286,0.01805,0.000141
2303.020557,0.003668,0.008965,0.000116
2285.814488,0.003524,0.006069,0.000147
2289.751399,0.003312,0.007221,0.000145
2328.511571,0.003758,0.010249,0.000137
2280.825886,0.003651,0.013829,0.000123
2273.960645,0.003867,0.01111,0.000141
2235.096857,0.003832,0.010935,0.000158
2254.410632,0.004211,0.020335,0.000124
2191.706683,0.005129,0.036484,0.000101
2258.393066,0.004388,0.022701,0.000087
2226.192252,0.003724,0.007903,0.000094
2294.762667,0.004327,0.022364,0.000076
2261.277887,0.003905,0.013819,0.000123
2244.797934,0.003653,0.012382,0.000106
2278.291447,0.003895,0.013694,0.000125
2247.0944,0.004244,0.020812,0.000054
2282.137434,0.004016,0.015931,0.000075
2287.014475,0.003519,0.009239,0.000104
2335.096221,0.003955,0.014586,0.00005
2276.799136,0.003621,0.009635,0.000089
2274.90191,0.004939,0.033795,0.000079
2174.005431,0.005137,0.034542,0.000127
2212.654364,0.00365,0.011891,0.00008
2241.70109,0.004168,0.013011,0.000096
2192.353804,0.004491,0.021574,0.000098
2386.38187,0.004257,0.017591,0.000116
2231.982657,0.004595,0.025875,0.00011
2359.395285,0.003909,0.011962,0.000122
2336.390747,0.00399,0.016091,0.000122
2314.560853,0.004014,0.014509,0.000116
2388.119103,0.003104,0.006896,0.000163
2289.061128,0.004758,0.027652,0.000125
2239.705614,0.0052,0.03338,0.000126
2318.718515,0.0043,0.01449,0.000152
2400.706415,0.003951,0.015298,0.000111
2373.109211,0.004186,0.018534,0.000122
2296.4908,0.004792,0.028638,0.000151
2284.921171,0.004886,0.025509,0.000141
2219.76842,0.005301,0.037656,0.000117
2287.781214,0.004522,0.02181,0.000102
2292.038734,0.004855,0.028512,0.000109
2327.280176,0.004359,0.020154,0.00011
2307.201423,0.004591,0.026582,0.000149
2252.229382,0.004372,0.021546,0.000096
2359.385001,0.004185,0.015708,0.000125
2348.402533,0.004528,0.023583,0.000111
2263.788094,0.005058,0.035146,0.000111
2320.004681,0.004457,0.026903,0.000112
2388.363878,0.004396,0.01731,0.00013
2304.149147,0.004796,0.028512,0.000126
2350.139999,0.00415,0.011562,0.000137
2259.010005,0.004497,0.019687,0.000154
2270.388336,0.004096,0.014333,0.000127
2256.461772,0.003939,0.01044,0.000112
2268.441081,0.004404,0.027519,0.000206
2330.832328,0.002487,0.000501,0.000139
2322.058622,0.002369,0.001451,0.000119
2318.604106,0.005016,0.028606,0.000133
2311.51749,0.004163,0.016895,0.00015
2285.502219,0.004378,0.015851,0.000148
2248.538132,0.004775,0.021614,0.000218
2300.55844,0.004261,0.017433,0.000131
2392.499529,0.003595,0.006911,0.000156
2277.825932,0.003963,0.018193,0.000169
2316.034153,0.003846,0.019334,0.000141
2251.424885,0.004791,0.030608,0.000117
2294.22872,0.004259,0.014475,0.000133
2308.930994,0.004556,0.020697,0.000138
2274.378,0.00479,0.02538,0.000175
2235.420067,0.004939,0.031975,0.000111
2333.60576,0.004353,0.021502,0.000121
2411.555854,0.003984,0.014574,0.000118
2377.460694,0.003825,0.010511,0.000138
2394.675602,0.003726,0.012666,0.000146
2436.930705,0.003945,0.01389,0.000114
2382.368375,0.004367,0.024802,0.00013
2374.618682,0.00378,0.011965,0.000142
2365.207975,0.004029,0.016529,0.000103
2356.380828,0.004257,0.01696,0.000139
2387.873997,0.003786,0.012008,0.000105
2400.802197,0.003649,0.011772,0.000114
2350.503229,0.003419,0.006408,0.00013
2377.416889,0.003795,0.012832,0.000114
2396.442169,0.003327,0.010569,0.000127
2321.803916,0.005021,0.030779,0.000144
2314.835086,0.005248,0.036214,0.000104
2362.775204,0.003836,0.01503,0.000101
2402.711537,0.003566,0.015301,0.000127
2454.784795,0.003376,0.009148,0.00013
2351.702103,0.004929,0.028677,0.000118
2339.444877,0.004534,0.024354,0.000144
2406.240266,0.004526,0.030352,0.000147
2448.196811,0.003892,0.015932,0.000113
2461.293586,0.004523,0.022349,0.000194
2413.207792,0.004785,0.028472,0.000172
2369.449271,0.004393,0.020118,0.000161
2350.464987,0.004311,0.019544,0.000162
2464.70359,0.003837,0.012861,0.000116
2515.676379,0.003989,0.014759,0.000173
2419.015279,0.004132,0.018483,0.00014
2454.638623,0.003964,0.015885,0.000148
2460.910867,0.003785,0.011668,0.000137
2492.139088,0.004195,0.020093,0.00018
2431.305257,0.005422,0.03949,0.000168
2464.388549,0.004364,0.02058,0.00012
2552.477633,0.00414,0.014718,0.000173
2442.464061,0.004229,0.019386,0.000175
2489.960054,0.004869,0.031003,0.000159
2535.89142,0.004296,0.021569,0.00015
2418.509148,0.005045,0.035395,0.000124
2513.956763,0.004081,0.01578,0.000158
2529.345638,0.003746,0.02061,0.000138
2597.215222,0.003936,0.015801,0.000152
2643.781113,0.002501,0.001959,0.000112
2639.143485,0.002686,0.004947,0.000102
2581.150415,0.004152,0.021034,0.000141
2606.441574,0.004032,0.014403,0.000122
2571.486622,0.003898,0.016336,0.000144
2497.141901,0.003737,0.011435,0.000163
2515.556771,0.004081,0.016527,0.000149
2506.907506,0.00415,0.019415,0.000147
2477.771852,0.004241,0.026039,0.000117
2398.220268,0.004622,0.031567,0.000103
2504.532174,0.004351,0.023302,0.000138
2408.05938,0.004072,0.017838,0.000139
2404.154379,0.003612,0.009942,0.000154
2393.011819,0.003831,0.010614,0.000148
2451.543752,0.003946,0.012959,0.000128
2456.606062,0.003621,0.01041,0.000115
2485.76665,0.00403,0.016688,0.000149
2476.201082,0.003641,0.009661,0.000133
2393.152341,0.003503,0.007497,0.000139
2399.406822,0.00436,0.023489,0.000116
2401.903813,0.003794,0.012387,0.000155
2395.251978,0.004383,0.021806,0.00014
2401.173738,0.004042,0.015672,0.000128
2383.790983,0.003683,0.011931,0.000116
2392.709336,0.003884,0.014053,0.000107
2282.380414,0.004788,0.028166,0.000102
2299.18532,0.005396,0.04046,0.000109
2298.627509,0.004721,0.029263,0.000102
2283.145838,0.003892,0.014115,0.000108
2325.801492,0.003033,0.003879,0.000114
2295.713562,0.003793,0.01288,0.000136
2253.570049,0.003755,0.009485,0.000135
2278.36014,0.003618,0.010422,0.000179
2243.237895,0.004081,0.014286,0.00017
2298.910814,0.00411,0.015196,0.00015
2286.753409,0.003652,0.007959,0.000171
2267.711246,0.004081,0.016145,0.000124
2246.719861,0.003648,0.010081,0.000138
2260.34635,0.003741,0.012378,0.000125
2198.847523,0.003825,0.013126,0.000104
2255.593305,0.004186,0.016973,0.000125
2158.91614,0.004161,0.01631,0.000117
2196.655594,0.002854,0.004817,0.000127
2211.548163,0.003673,0.00995,0.000132
2150.855302,0.002427,0.001482,0.000139
2175.057711,0.00236,0.000716,0.000097
2174.156223,0.003263,0.006659,0.000102
2077.292668,0.004437,0.020258,0.000144
2042.418166,0.00402,0.018662,0.000121
2111.282831,0.003357,0.00647,0.000123
2091.465161,0.004045,0.014903,0.00015
2068.262632,0.003691,0.008209,0.000137
2016.224818,0.00354,0.005208,0.000125
2010.045515,0.00346,0.006412,0.000145
1971.41626,0.004537,0.018088,0.000121
2001.079474,0.003226,0.004834,0.000141
1979.731258,0.002157,0.000343,0.000129
1895.657476,0.002966,0.005119,0.000138
1975.021514,0.003767,0.010503,0.000105
1877.666261,0.002061,0.000291,0.000153
1960.050539,0.002622,0.002204,0.000149
2008.956034,0.002121,0.000512,0.00016
2055.346776,0.002018,0.000406,0.000131
2006.976411,0.002369,0.001135,0.000122
2029.1189,0.002214,0.00021,0.000126
1952.660713,0.002842,0.003473,0.000176
1982.026381,0.002204,0.000316,0.000132
1934.703816,0.00226,0.000508,0.000102
1933.61885,0.002131,0.000197,0.000112
1970.165296,0.002129,0.000638,0.000179
1870.558145,0.002161,0.000225,0.000126
1837.151408,0.002223,0.000789,0.000085
1804.967223,0.002187,0.000314,0.000116
1891.11868,0.002167,0.001733,0.000129
1858.110071,0.002309,0.00025,0.000111
1815.010245,0.002061,0.000153,0.000144
1912.398499,0.002274,0.001229,0.0001
1742.117168,0.001936,0.000208,0.000104
1769.84208,0.002151,0.000525,0.000107
1853.170269,0.002228,0.001879,0.000097
1818.237257,0.002812,0.002623,0.000107
1742.1002,0.003456,0.005042,0.000138
1777.090149,0.003914,0.011398,0.000128
1762.860742,0.00215,0.001553,0.000094
1746.886542,0.002086,0.000426,0.000105
1687.36737,0.002103,0.000698,0.000098
1660.225756,0.002525,0.001948,0.000105
1611.271403,0.002496,0.002988,0.000104
1611.50466,0.002117,0.000348,0.000094
1576.07867,0.002131,0.000507,0.000072
1608.110565,0.002078,0.00016,0.000133
1599.48043,0.002334,0.000282,0.000122
1631.398899,0.002746,0.001867,0.000176
1572.368436,0.002132,0.001421,0.000101
1605.804973,0.003095,0.002344,0.000139
1591.110854,0.002911,0.006856,0.000197
1574.862444,0.002953,0.005026,0.000118
1540.78416,0.0028,0.002368,0.000157
1515.691231,0.002185,0.000635,0.000107
1519.348122,0.002319,0.000736,0.00014
1542.597025,0.002557,0.002651,0.000123
1574.915386,0.002121,0.000347,0.000116
1547.894237,0.001927,0.000182,0.000099
1496.250346,0.002101,0.000679,0.000105
1481.935449,0.001842,0.000175,0.000087
1443.698939,0.002058,0.000297,0.000106
1479.365762,0.002334,0.00067,0.000127
1460.087966,0.002537,0.004844,0.000118
1467.853978,0.001918,0.000133,0.000096
1446.523551,0.002091,0.000173,0.000105
1446.364218,0.001926,0.00012,0.000087
1477.547724,0.002263,0.002489,0.000089
1361.445156,0.00208,0.000208,0.000098
1365.826188,0.001909,0.000113,0.000087
1405.739019,0.00214,0.000922,0.000095
1424.443075,0.002544,0.004886,0.000087
1448.659886,0.002084,0.000151,0.000092
1312.515033,0.00192,0.00012,0.000121
1250.516798,0.001998,0.000132,0.000089
1257.491963,0.001979,0.000105,0.000099
1349.684814,0.002137,0.000171,0.000115
1379.936642,0.002056,0.000128,0.000101
1441.171951,0.002832,0.002498,0.000151
1395.960859,0.003079,0.002876,0.000128
1404.632102,0.003258,0.005233,0.000154
1315.032795,0.002801,0.000845,0.000156
1318.288684,0.003007,0.002327,0.000151
1378.074774,0.003179,0.004409,0.000138
1383.514134,0.003503,0.009223,0.000119
1382.115327,0.002955,0.003702,0.000169
1450.20849,0.003585,0.010295,0.000132
1396.690719,0.003198,0.005059,0.000096
1444.100406,0.003553,0.008969,0.000102
1327.97167,0.003628,0.00779,0.000135
1395.465783,0.004081,0.012344,0.000133
1446.14228,0.002694,0.00298,0.000074
1356.700619,0.003604,0.006558,0.000193
1432.933068,0.002475,0.001167,0.000105
1400.589988,0.002753,0.002119,0.00012
1370.720992,0.002898,0.002066,0.000134
1391.66365,0.002834,0.003018,0.000105
1446.726427,0.003223,0.004177,0.000126
1481.779425,0.003636,0.013011,0.00013
1426.814195,0.003648,0.007173,0.000105
1463.50591,0.003009,0.004846,0.000097
1463.037288,0.002814,0.001333,0.000105
1405.844822,0.002517,0.000192,0.000123
1384.617594,0.003009,0.003177,0.000093
1409.237868,0.003686,0.010715,0.000107
1406.286402,0.002273,0.000155,0.000109
1382.750171,0.002115,0.000779,0.00009
1458.490794,0.002337,0.001152,0.000102
1435.565175,0.002375,0.000602,0.000114
1417.015892,0.002014,0.000459,0.000098
1475.804464,0.00192,0.000197,0.000095
1432.127622,0.002616,0.002657,0.000105
1353.871414,0.002454,0.00036,0.0001
1458.048028,0.003438,0.007322,0.000119
1394.67671,0.002343,0.000737,0.000094
1426.726461,0.002211,0.000188,0.000083
1359.332101,0.002088,0.000138,0.000084
1373.54201,0.002511,0.001247,0.000102
1328.941194,0.003058,0.003724,0.000157
1426.801682,0.003041,0.00718,0.000128
1354.238183,0.004148,0.016948,0.000139
1375.808015,0.003941,0.014141,0.000132
1366.775126,0.002908,0.003159,0.000115
1320.762896,0.003369,0.004535,0.000106
1288.060826,0.002759,0.001888,0.00013
1361.483315,0.003301,0.005754,0.000116
1388.715672,0.003507,0.00753,0.000085
1394.935451,0.003736,0.011035,0.0001
1322.342895,0.003851,0.01155,0.000203
1365.491563,0.00386,0.008606,0.000104
1360.390074,0.003923,0.013809,0.000048
1429.234648,0.003386,0.005533,0.000219
1368.50133,0.002707,0.004012,0.000053
1322.664951,0.002107,0.000326,0.000092
1314.395373,0.001808,0.000081,0.000078
1323.509241,0.002607,0.002622,0.000063
1362.523967,0.001787,0.000108,0.000081
1312.80089,0.002158,0.000724,0.000095
1315.047769,0.001933,0.000098,0.000087
1378.970352,0.002128,0.001265,0.00006
1296.987621,0.001918,0.000095,0.000095
1319.394715,0.001946,0.000077,0.000098
1407.78064,0.002421,0.002136,0.000098
1319.506455,0.001994,0.001474,0.000088
1325.986075,0.002613,0.002867,0.000178
1303.529223,0.002236,0.000681,0.000141
1352.089971,0.001917,0.000704,0.000063
1242.170007,0.001938,0.000172,0.00008
1289.63386,0.002657,0.004253,0.000079
1289.426525,0.002028,0.00133,0.000101
1266.828958,0.001842,0.000093,0.000071
1283.405807,0.002044,0.000166,0.000159
1299.237156,0.001856,0.000106,0.000085
1263.973004,0.001975,0.000109,0.000038
1267.211017,0.003189,0.006028,0.000111
1279.159885,0.002482,0.000811,0.000143
1328.526879,0.003056,0.009011,0.000121
1280.777459,0.002219,0.001386,0.000058
1287.123094,0.001962,0.000087,0.000099
1261.38514,0.001997,0.000222,0.000091
1235.663786,0.001973,0.000104,0.0001
1223.158595,0.001811,0.000118,0.000073
1245.061029,0.002336,0.00429,0.000063
1173.0086,0.002354,0.000198,0.000156
1288.291877,0.003598,0.006948,0.000092
1169.978978,0.003159,0.006021,0.0001
1247.452632,0.002541,0.000208,0.000081
1204.692198,0.003048,0.002257,0.000135
1228.195737,0.002396,0.001292,0.000083
1187.068476,0.00264,0.001254,0.000112
1207.029433,0.002708,0.00237,0.000121
1171.914585,0.002841,0.002597,0.000107
1211.952193,0.003204,0.002487,0.000111
1214.90612,0.002394,0.000151,0.000104
1249.673331,0.002672,0.003209,0.000092
1222.98581,0.002673,0.002108,0.000108
1166.469178,0.002061,0.000171,0.000074
1195.059844,0.002152,0.000389,0.000069
1221.26041,0.002008,0.000146,0.000111
1258.061273,0.002231,0.000193,0.000118
1180.271376,0.002523,0.000944,0.000107
1128.417485,0.003021,0.004134,0.000104
1176.501546,0.002795,0.003647,0.000088
1153.371022,0.001947,0.000149,0.00009
1171.085817,0.002199,0.000253,0.000078
1116.817706,0.002231,0.000347,0.000083
1132.353912,0.001962,0.000121,0.000087
1186.303653,0.00244,0.000911,0.000111
1164.624043,0.002568,0.000581,0.000113
1196.619356,0.003588,0.007884,0.000106
1221.866919,0.003185,0.002203,0.000113
1093.107223,0.00284,0.002111,0.000125
1094.402052,0.003116,0.004845,0.000122
1163.298404,0.003506,0.008332,0.000141
1164.702846,0.003031,0.004009,0.000086
1073.841247,0.002714,0.002581,0.000138
1061.0441,0.002503,0.001273,0.000133
1181.502655,0.002924,0.002228,0.000105
1164.8306,0.002778,0.002162,0.000131
1139.427495,0.002673,0.000225,0.000146
1125.975861,0.00293,0.003392,0.000121
1009.225232,0.002726,0.0005,0.000113
1053.932672,0.002282,0.004412,0.000078
1113.034777,0.002012,0.000121,0.000099
1089.057483,0.001959,0.000315,0.000071
1111.177618,0.001963,0.000157,0.000089
1127.504242,0.002164,0.000968,0.000078
1081.235911,0.001971,0.001051,0.0001
1143.122506,0.001855,0.000115,0.000098
1177.107671,0.002,0.00012,0.000122
1137.92015,0.001897,0.001372,0.000058
1103.551674,0.001825,0.000112,0.000057
1137.946391,0.002035,0.00041,0.000073
1146.492881,0.0026,0.001348,0.000086
1155.945268,0.002626,0.003908,0.000114
1150.047989,0.002007,0.000229,0.000094
1179.857473,0.001925,0.000101,0.000139
1167.295218,0.001918,0.000122,0.000062
1145.753745,0.001831,0.000103,0.000081
1074.996476,0.001995,0.001037,0.000072
1217.677336,0.001821,0.000117,0.000088
1124.063587,0.002024,0.000096,0.000088
1123.019702,0.001869,0.000093,0.00008
1131.581628,0.002091,0.000116,0.000069
1230.891373,0.001798,0.000099,0.000074
1187.987202,0.002132,0.000226,0.0001
1208.179951,0.00194,0.000113,0.00009
1185.925745,0.002838,0.002622,0.000143
1195.242155,0.002528,0.000181,0.000158
1196.214438,0.002084,0.000126,0.000091
1279.16691,0.002183,0.00013,0.000108
1316.534798,0.002309,0.000171,0.000116
1233.767954,0.002237,0.000151,0.000147
1170.344782,0.002176,0.000176,0.000094
1309.890486,0.002706,0.000424,0.000137
1254.243617,0.002506,0.000291,0.000112
1203.764835,0.002647,0.000299,0.00013
1215.631572,0.002453,0.000195,0.000133
1209.813695,0.002596,0.000806,0.0001
1208.934015,0.002577,0.00022,0.000127
1309.602415,0.002649,0.001295,0.000132
1284.951647,0.002559,0.000265,0.000134
1283.219439,0.00299,0.001017,0.000153
1196.483435,0.002732,0.000255,0.000113
1264.49187,0.002567,0.001397,0.000124
1363.429615,0.002627,0.000358,0.000127
1326.90723,0.002399,0.001416,0.00011
1224.999038,0.002592,0.003017,0.000104
1370.344438,0.002692,0.000224,0.000125
1331.224494,0.002595,0.000647,0.000118
1230.164333,0.002951,0.002955,0.000153
1291.581976,0.002358,0.000519,0.000112
1269.91977,0.002387,0.001002,0.000102
1279.266727,0.002682,0.001632,0.000088
1281.99102,0.002575,0.000239,0.000126
1339.308522,0.002728,0.002526,0.000163
1359.410242,0.002771,0.000925,0.000161
1437.697338,0.002824,0.000782,0.000213
1336.254221,0.002139,0.000178,0.000104
1375.919084,0.002207,0.000152,0.000083
1381.266385,0.002159,0.000138,0.000107
1371.583301,0.00268,0.000311,0.000133
1399.004033,0.002078,0.000153,0.000103
1445.873804,0.00281,0.00117,0.000143
1421.667281,0.002779,0.001272,0.000155
1508.958336,0.002868,0.001728,0.000144
1426.490978,0.00278,0.000745,0.000132
1333.433975,0.002554,0.000598,0.000157
1353.294607,0.00221,0.00017,0.00013
1397.861168,0.002044,0.000156,0.000125
1360.023152,0.002008,0.000132,0.000094
1424.517625,0.00217,0.000178,0.000112
1479.49447,0.002478,0.000592,0.000169
1424.519942,0.002445,0.001112,0.000188
1451.098214,0.003003,0.002071,0.000169
1509.783578,0.002083,0.000185,0.000102
1598.753906,0.002135,0.000152,0.000105
1492.944179,0.001951,0.000172,0.000111
1490.714285,0.002047,0.000147,0.000101
1557.455637,0.001969,0.000216,0.000108
1500.216841,0.002191,0.000241,0.000119
1473.687619,0.001989,0.000149,0.000123
1461.095821,0.00189,0.000145,0.000071
1556.609461,0.002047,0.00017,0.000115
1565.315825,0.002133,0.000174,0.000157
1547.91149,0.00208,0.000281,0.000114
1587.597699,0.001943,0.000166,0.000118
1561.810828,0.002762,0.000988,0.00014
1610.468302,0.002899,0.000863,0.000187
1528.245903,0.002642,0.001498,0.000136
1598.820065,0.002558,0.000236,0.000163
1600.039227,0.002391,0.000214,0.000133
1563.897766,0.002504,0.001876,0.000147
1615.13869,0.002902,0.001831,0.000138
1592.007617,0.002663,0.001091,0.00012
1625.83967,0.002648,0.00205,0.000116
1690.143245,0.002465,0.001124,0.000124
1681.530754,0.002593,0.000206,0.000146
1631.07802,0.002785,0.000332,0.000183
1686.447261,0.003375,0.009044,0.000158
1690.342424,0.003237,0.005075,0.000175
1568.206773,0.002736,0.002403,0.000185
1643.152028,0.002649,0.000518,0.000168
1598.121537,0.002615,0.001191,0.000129
1701.45035,0.003106,0.004064,0.000188
1600.153602,0.002626,0.002522,0.000133
1889.655827,0.003433,0.004728,0.000192
1693.974848,0.002882,0.000445,0.000114
1637.569447,0.002875,0.000381,0.000157
1638.674295,0.002565,0.000307,0.000134
1667.647836,0.002725,0.001914,0.000142
1686.908525,0.002834,0.000455,0.000166
1614.982743,0.002155,0.000168,0.000103
1675.359372,0.003197,0.002941,0.000234
1654.64414,0.003071,0.002563,0.000143
1680.902963,0.002722,0.000551,0.00016
1748.810571,0.003024,0.000883,0.000193
1778.437925,0.00263,0.000486,0.000185
1766.396531,0.002506,0.00047,0.000172
1791.586209,0.002648,0.001281,0.000155
1716.738838,0.002648,0.000308,0.000177
1755.255637,0.003029,0.001013,0.000178
1885.115401,0.003033,0.001527,0.00019
1732.099974,0.00275,0.001482,0.000158
1731.885347,0.002648,0.000273,0.000133
1767.882981,0.002826,0.001534,0.000161
1754.428623,0.002839,0.002156,0.000161
1770.605406,0.00258,0.000421,0.00013
1788.683016,0.002716,0.002703,0.000121
1710.864047,0.002714,0.002016,0.000121
1719.393552,0.00281,0.00142,0.000141
1726.054523,0.002784,0.001424,0.000129
1662.462263,0.002648,0.00055,0.000141
1791.493985,0.003015,0.001116,0.000154
1789.637967,0.00282,0.001522,0.000148
1694.892947,0.002602,0.000472,0.000111
1744.725969,0.002912,0.000437,0.000137
1721.231588,0.002691,0.00048,0.000125
1811.0839,0.002902,0.00207,0.000145
1752.343153,0.002747,0.000353,0.000121
1746.664098,0.00277,0.001619,0.000137
1827.9058,0.002812,0.00138,0.000119
1731.499889,0.00272,0.002348,0.000115
1723.386038,0.002721,0.002137,0.000159
1720.49883,0.002936,0.001556,0.000168
1652.907085,0.002481,0.000247,0.000142
1737.910499,0.002839,0.000389,0.000179
1826.35645,0.002867,0.00058,0.000135
1808.90197,0.002942,0.000417,0.000188
1757.942999,0.003065,0.000598,0.000201
1693.77282,0.002902,0.000674,0.000194
1723.74207,0.002865,0.000652,0.000162
1785.292538,0.0024,0.000204,0.000124
1787.459549,0.0028,0.001672,0.00014
1798.792395,0.003019,0.000684,0.000182
1814.961062,0.002965,0.00152,0.000178
1877.169735,0.002869,0.002234,0.000188
1766.543798,0.002805,0.000336,0.000136
1878.034645,0.002838,0.000417,0.000147
1892.297253,0.00287,0.002031,0.000135
1865.677948,0.002831,0.000646,0.000174
1821.695585,0.002843,0.003487,0.000168
1770.546607,0.003061,0.004987,0.00017
1719.4105,0.002825,0.000892,0.000172
1645.006242,0.002667,0.000284,0.000165
1628.635398,0.002722,0.000261,0.000137
1705.569789,0.002928,0.002015,0.000146
1729.023984,0.00287,0.002086,0.000156
1719.56028,0.003165,0.005251,0.000163
1849.88096,0.00307,0.001722,0.000152
1678.275314,0.002863,0.002203,0.000138
1674.362873,0.002731,0.00159,0.00013
1722.71686,0.002531,0.00096,0.000132
1718.294528,0.003037,0.001389,0.000148
1640.869716,0.003302,0.002981,0.000173
1710.305943,0.003088,0.000577,0.000173
1731.069581,0.003132,0.001618,0.000166
1761.909889,0.002874,0.001295,0.000138
1761.256215,0.002749,0.000277,0.00023
1714.330169,0.002541,0.000885,0.000142
1732.309908,0.002871,0.000789,0.000152
1748.21705,0.002621,0.000352,0.000161
1730.437425,0.002815,0.001793,0.000155
1747.528357,0.002754,0.000568,0.000131
1729.763327,0.002697,0.002357,0.000135
1827.798484,0.00262,0.001758,0.000109
1839.492937,0.002574,0.000268,0.000256
1775.454176,0.002608,0.000369,0.000131
1782.924039,0.002599,0.000763,0.000148
1853.581898,0.003187,0.01098,0.00016
1872.449186,0.002768,0.000329,0.000117
1912.145878,0.002586,0.000953,0.00014
1831.534844,0.002532,0.001101,0.000119
1730.970665,0.002864,0.001336,0.000211
1768.748356,0.003173,0.007755,0.000145
1775.287954,0.002779,0.001694,0.000147
1821.578177,0.00244,0.000855,0.000198
1852.878712,0.002253,0.000181,0.000127
1795.845441,0.002941,0.000536,0.000204
1753.855314,0.003264,0.004107,0.000209
1791.599937,0.003217,0.003512,0.000189
1889.301679,0.00287,0.000481,0.000168
1746.881546,0.002917,0.004384,0.000126
1837.936807,0.00256,0.000255,0.000138
1810.296387,0.002384,0.000203,0.000118
1770.202197,0.002567,0.000305,0.000108
1759.918031,0.002505,0.000758,0.000138
1884.575347,0.00258,0.000509,0.000117
1893.606017,0.002849,0.000497,0.00009
1867.609063,0.003187,0.004289,0.00013
1888.50539,0.003129,0.002233,0.000098
1864.467025,0.002938,0.000408,0.000125
1885.679173,0.002685,0.000849,0.000108
1952.387489,0.002982,0.007594,0.000141
1869.132318,0.002817,0.001793,0.000195
1953.535788,0.002851,0.000702,0.000133
1937.639463,0.002942,0.003705,0.000138
1891.720036,0.002956,0.002686,0.000112
1911.416538,0.003079,0.00287,0.000126
1922.726249,0.002925,0.002195,0.000133
1960.126676,0.002745,0.000869,0.000194
1893.486227,0.003003,0.005164,0.0002
1938.942469,0.003082,0.004404,0.000156
1886.945302,0.002232,0.000878,0.000087
1873.278438,0.002217,0.000214,0.000107
1995.427771,0.002169,0.0002,0.000153
1976.275842,0.002212,0.000182,0.000126
2032.827503,0.002136,0.000202,0.000118
2070.12655,0.002025,0.000243,0.000106
1990.799439,0.002185,0.000259,0.000138
2049.379789,0.002175,0.000437,0.00014
2073.827431,0.002182,0.000218,0.000141
2007.994051,0.002849,0.001659,0.000132
2004.249837,0.002639,0.000784,0.000146
2001.755907,0.002988,0.00337,0.000206
2029.366849,0.002655,0.000257,0.000144
2074.990546,0.002723,0.001058,0.000145
1943.34253,0.002737,0.002335,0.000173
2037.158142,0.002793,0.00179,0.000159
2029.847893,0.003084,0.007312,0.000148
2040.357498,0.002851,0.001847,0.000119
1996.885901,0.003276,0.004443,0.000123
2053.381509,0.002687,0.000566,0.000144
2069.076705,0.002865,0.001587,0.00018
2059.610016,0.002691,0.002144,0.000133
2116.762341,0.00289,0.003325,0.000141
2056.220009,0.002961,0.003433,0.000165
2132.344563,0.00284,0.000658,0.000123
2197.394825,0.003361,0.009214,0.000164
2187.565644,0.003683,0.016103,0.000186
2202.808507,0.002988,0.001773,0.000157
2137.145081,0.002914,0.000754,0.000152
2173.084333,0.003651,0.012843,0.000167
2201.306133,0.00323,0.006561,0.000159
2234.386444,0.003218,0.00916,0.000179
2196.720946,0.002984,0.003531,0.000165
2274.799138,0.003477,0.009556,0.000131
2195.265209,0.003062,0.002585,0.00014
2155.036172,0.003239,0.003122,0.000163
2124.506852,0.0045,0.024637,0.000175
2167.987101,0.003476,0.008618,0.000145
2187.662086,0.003186,0.002815,0.000124
2270.109805,0.003172,0.00384,0.000176
2123.635093,0.003333,0.012029,0.000149
2198.106592,0.003358,0.005266,0.000149
2068.639698,0.003235,0.003255,0.000156
2194.095118,0.002958,0.001815,0.000135
2147.512664,0.00338,0.005349,0.000148
2122.729852,0.003098,0.009375,0.000153
2119.584773,0.002139,0.000243,0.000127
2167.056724,0.00303,0.003038,0.000105
2226.315293,0.003173,0.005237,0.000123
2219.787937,0.003291,0.012447,0.000102
2244.79437,0.003077,0.002877,0.000139
2121.187292,0.00279,0.000638,0.000114
2252.386489,0.002085,0.000237,0.000099
2181.239109,0.00281,0.001083,0.000162
2191.133766,0.003362,0.005728,0.000122
2211.942763,0.003111,0.004879,0.000159
2121.523128,0.003979,0.016649,0.000131
2184.883132,0.003717,0.008507,0.000157
2155.32711,0.003511,0.008439,0.000166
2255.938069,0.003191,0.002708,0.000192
2222.90656,0.002578,0.000933,0.00014
2196.917902,0.002879,0.004524,0.000167
2218.925624,0.002462,0.001047,0.000113
2232.825715,0.002297,0.000353,0.000106
2206.162882,0.003207,0.007801,0.000112
2123.908099,0.003227,0.004931,0.000165
2242.673341,0.003612,0.014563,0.000128
2159.066493,0.003598,0.013967,0.000126
2201.045207,0.003716,0.01131,0.000137
2233.369163,0.003262,0.004749,0.000177
2084.944669,0.003627,0.01364,0.000161
2120.912472,0.004229,0.019715,0.000163
2115.073217,0.004438,0.019506,0.000141
2102.855439,0.00423,0.017147,0.000175
2139.808557,0.003056,0.003373,0.000192
2224.054051,0.003393,0.009815,0.000129
2138.587733,0.002813,0.000927,0.000157
2190.374707,0.00353,0.012477,0.000156
2115.242345,0.003565,0.006914,0.000142
2197.139197,0.003765,0.012305,0.000121
2161.616722,0.00345,0.009924,0.00012
2186.395888,0.004005,0.014738,0.000113
2114.346863,0.00349,0.008907,0.000164
2264.483467,0.003876,0.012796,0.000138
2186.615456,0.003141,0.003679,0.000095
2222.523199,0.003185,0.006257,0.000123
2186.542406,0.0038,0.009797,0.000109
2244.699732,0.003621,0.008963,0.000152
2184.321678,0.003377,0.004491,0.000149
2230.038981,0.003206,0.004966,0.000123
2190.940366,0.003203,0.002983,0.000131
2214.849536,0.003391,0.006159,0.000158
2218.413924,0.003454,0.007889,0.000116
2297.935638,0.003547,0.009222,0.000118
2317.653307,0.003921,0.017345,0.000097
2314.969187,0.003529,0.009027,0.000112
2327.253722,0.003419,0.007682,0.000149
2283.292353,0.003312,0.005005,0.000118
2298.820636,0.003624,0.010336,0.000137
2231.27747,0.003535,0.009413,0.000128
2199.908631,0.003894,0.012,0.000117
2118.68347,0.004457,0.021384,0.000154
2243.05252,0.003531,0.007611,0.000155
2233.391231,0.00388,0.011991,0.000148
2227.206745,0.003439,0.004877,0.000124
2200.191684,0.00329,0.003875,0.000189
2179.905891,0.003465,0.005207,0.00015
2161.518413,0.003349,0.00434,0.000166
2289.818207,0.003694,0.008294,0.000147
2230.360121,0.003723,0.007234,0.000141
2233.754574,0.003741,0.009047,0.000216
2190.959794,0.003843,0.011806,0.000184
2214.515274,0.004345,0.022116,0.000124
2215.486829,0.003721,0.014345,0.000173
2150.940672,0.00453,0.024773,0.000126
2255.880805,0.004188,0.020088,0.000117
2286.503486,0.004519,0.023924,0.000111
2245.274537,0.004073,0.016725,0.000134
2284.798877,0.003549,0.012103,0.000119
2245.358471,0.004121,0.012033,0.000176
2153.939372,0.004809,0.027128,0.000164
2270.904368,0.00424,0.017992,0.000129
2308.676215,0.00343,0.004501,0.000129
2289.546605,0.003503,0.004378,0.000147
2274.133207,0.004108,0.013515,0.000154
2289.846958,0.004229,0.018919,0.000133
2260.12217,0.003694,0.009815,0.000152
2207.918723,0.004815,0.025553,0.000149
2197.337706,0.004782,0.028413,0.000158
2139.684249,0.004521,0.020768,0.000175
2164.099117,0.005274,0.034602,0.000119
2139.712179,0.004585,0.026954,0.000097
2176.081136,0.005388,0.036941,0.000089
2196.415919,0.004293,0.018366,0.000124
2234.925003,0.004538,0.024337,0.000136
2194.178328,0.004473,0.024303,0.000099
2240.210986,0.003512,0.00532,0.000133
2277.449228,0.003259,0.006448,0.000132
2249.456497,0.003336,0.00488,0.000135
2217.786364,0.002677,0.00344,0.000096
2215.017959,0.00395,0.013362,0.000122
2197.682874,0.002678,0.000527,0.000133
2268.661319,0.003926,0.014668,0.000161
2393.028825,0.002977,0.008269,0.000099
2223.754136,0.003554,0.014591,0.00012
2357.644396,0.004205,0.020019,0.000131
2273.317924,0.003809,0.012957,0.00016
2215.084365,0.003318,0.006902,0.000126
2260.754402,0.00349,0.01057,0.000123
2196.396791,0.003871,0.014003,0.000113
2203.355489,0.003807,0.011904,0.000128
2258.209469,0.003215,0.005905,0.000162
2243.100953,0.00326,0.008663,0.000096
2270.133626,0.003602,0.011155,0.00012
2319.257189,0.002325,0.001255,0.000108
2290.322084,0.002888,0.003605,0.000141
2331.522317,0.002664,0.003142,0.000096
2281.074195,0.001997,0.000298,0.000073
2278.131716,0.002086,0.000221,0.000095
2228.294823,0.00206,0.001988,0.000113
2231.32627,0.002373,0.003548,0.0001
2251.165129,0.001979,0.000176,0.000071
2320.319409,0.002302,0.000775,0.0001
2215.660869,0.002145,0.000244,0.000105
2192.950489,0.004052,0.015271,0.000179
2160.138024,0.004849,0.025547,0.00013
2265.316765,0.003466,0.009368,0.000139
2209.835467,0.003309,0.005472,0.000133
2255.295021,0.003658,0.01204,0.000107
2250.497547,0.003915,0.014745,0.000107
2250.236801,0.003279,0.006248,0.000105
2204.931125,0.004256,0.022716,0.000125
2278.575782,0.004,0.016262,0.000089
2271.75816,0.003335,0.006304,0.000112
2299.519303,0.003405,0.012743,0.000195
2370.305115,0.002315,0.002146,0.000105
2323.30885,0.003375,0.009085,0.000108
2398.116668,0.002805,0.003397,0.00012
2357.549852,0.002481,0.003573,0.000125
2194.809588,0.003927,0.019405,0.000105
2212.347525,0.003463,0.00931,0.000115
2326.308826,0.003899,0.012867,0.000114
2280.879331,0.003414,0.009234,0.000094
2330.398218,0.003234,0.011977,0.000116
2262.173435,0.004452,0.0308,0.000125
2342.838875,0.003328,0.019366,0.000094
2350.971305,0.002983,0.009125,0.000098
2377.764687,0.002779,0.004826,0.00009
2353.944822,0.002265,0.003894,0.000095
2382.504289,0.002112,0.000817,0.000101
2368.171313,0.00207,0.000227,0.000079
2357.260679,0.002071,0.00023,0.000101
2330.177532,0.002024,0.000401,0.000096
2286.114897,0.002541,0.001543,0.000117
2293.623892,0.002418,0.002302,0.000098
2321.748051,0.003487,0.01063,0.000118
2298.182507,0.004051,0.018168,0.00016
2256.84003,0.003935,0.01038,0.000143
2213.680285,0.003354,0.006395,0.000103
2267.398108,0.003889,0.013865,0.000153
2281.898926,0.003737,0.012602,0.000114
2238.929151,0.003995,0.015684,0.000112
2268.798879,0.004507,0.025058,0.000117
2385.877834,0.002279,0.000509,0.000085
2297.262229,0.003838,0.019233,0.000087
2327.738858,0.004275,0.019103,0.000115
2309.996171,0.004325,0.018027,0.000119
2263.964687,0.002924,0.004434,0.000192
2301.43315,0.003475,0.008286,0.000152
2261.35213,0.004017,0.013488,0.000149
2227.047183,0.003822,0.016808,0.000213
2247.631856,0.003178,0.006956,0.000113
2298.393248,0.00387,0.012266,0.000118
2220.626184,0.004781,0.025217,0.000123
2225.090911,0.005093,0.031329,0.000152
2382.022569,0.004147,0.022557,0.000136
2404.071788,0.003705,0.011781,0.00014
2385.012132,0.004467,0.022324,0.00014
2195.541239,0.004285,0.019868,0.000152
2340.022907,0.003443,0.006428,0.000166
2314.558691,0.003254,0.005007,0.00012
2273.561873,0.004513,0.024113,0.000142
2410.048555,0.003765,0.009926,0.000132
2324.196595,0.003717,0.013896,0.000128
2247.215283,0.004742,0.024915,0.000137
2214.557086,0.004444,0.023186,0.000147
2324.492049,0.003603,0.007436,0.000163
2276.158084,0.003796,0.011748,0.00017
2316.007412,0.00376,0.009291,0.000134
2285.896433,0.004634,0.02582,0.000146
2349.60846,0.004156,0.01904,0.000121
2399.883393,0.004154,0.019284,0.00011
2467.709297,0.00413,0.01876,0.000127
2167.648741,0.005177,0.03802,0.00013
2251.462094,0.004769,0.030042,0.000123
2288.788561,0.004476,0.022651,0.00014
2314.750845,0.004062,0.015447,0.000138
2307.658355,0.004521,0.021166,0.000124
2359.185678,0.003861,0.016344,0.000153
2303.481499,0.00473,0.02373,0.00015
2364.877333,0.003851,0.014414,0.000173
2444.483473,0.004003,0.018659,0.000116
2405.890125,0.003658,0.012608,0.000214
2367.575005,0.003797,0.014869,0.000115
2364.99321,0.003733,0.013073,0.000129
2417.955791,0.004343,0.020546,0.000168
2386.954586,0.004605,0.026862,0.000156
2317.502855,0.004847,0.029619,0.000124
2368.076467,0.004427,0.024463,0.000119
2351.165956,0.003595,0.012472,0.00015
2382.419349,0.00456,0.022266,0.000128
2272.882842,0.004928,0.030818,0.000104
2386.210238,0.003564,0.015009,0.000117
2480.977828,0.002655,0.00288,0.000118
2356.849557,0.003262,0.010547,0.000142
2393.103801,0.00373,0.012344,0.000137
2341.924004,0.002905,0.002115,0.000128
2386.751519,0.003181,0.006683,0.000122
2330.062847,0.003574,0.009152,0.000128
2338.487052,0.003552,0.009786,0.000122
2328.580097,0.003046,0.005049,0.000125
2355.822004,0.003147,0.002131,0.000385
2468.892243,0.002318,0.000289,0.000103
2453.828102,0.002301,0.000976,0.000112
2303.409956,0.003746,0.013792,0.000099
2364.004422,0.00251,0.004362,0.000041
2321.561866,0.002083,0.001455,0.000022
2177.663924,0.005216,0.037545,0.000058
2314.064292,0.004186,0.016184,0.000203
2308.243754,0.003976,0.013189,0.000134
2364.936753,0.003275,0.005522,0.000216
2303.318732,0.003377,0.008639,0.000114
2279.515902,0.003861,0.01138,0.000132
2277.041668,0.003587,0.010757,0.000124
2142.176999,0.005257,0.03797,0.000131
2212.792169,0.004999,0.030217,0.000119
2218.983809,0.003344,0.009011,0.00016
2196.201275,0.00372,0.012938,0.00011
2194.395593,0.003411,0.009726,0.000142
2153.933328,0.003985,0.014591,0.000156
2160.175408,0.003821,0.009829,0.000136
2144.153588,0.003176,0.006711,0.000136
2139.401605,0.003078,0.004559,0.000146
2129.547272,0.003598,0.005774,0.000157
2158.754206,0.003903,0.008571,0.000176
2185.56691,0.003739,0.010734,0.000159
2163.371324,0.003648,0.00647,0.000106
2125.548736,0.003501,0.008003,0.000116
2126.710593,0.003832,0.010099,0.000152
2105.37852,0.004362,0.022234,0.000108
2073.473308,0.003838,0.01542,0.000114
2153.126443,0.003288,0.009616,0.000097
2121.246311,0.002085,0.000745,0.00008
2170.360021,0.002169,0.001032,0.000121
2082.355747,0.002142,0.000201,0.00009
2121.708183,0.002096,0.000315,0.000122
2080.38999,0.003218,0.010402,0.000129
1994.172399,0.00335,0.006041,0.000192
2050.659549,0.003321,0.003512,0.000123
1992.431538,0.003423,0.00775,0.000119
1954.578189,0.003421,0.00823,0.00016
1990.412311,0.00362,0.012203,0.00012
1986.652193,0.003688,0.009827,0.000159
1957.868666,0.004258,0.021996,0.000119
1972.728411,0.003587,0.010202,0.000101
2014.655805,0.003798,0.011983,0.000108
1920.120884,0.003202,0.004147,0.000114
1956.717566,0.003292,0.007649,0.000076
1940.905062,0.003743,0.008025,0.000096
1845.455489,0.002932,0.004676,0.000116
1883.486889,0.002489,0.00147,0.000111
1926.020295,0.003239,0.007336,0.00011
1852.65315,0.00314,0.006512,0.000098
1875.316434,0.003196,0.005926,0.000137
1896.842069,0.003038,0.00499,0.000131
1871.30509,0.004066,0.014357,0.000197
1898.810378,0.004182,0.014044,0.000111
1846.773053,0.003604,0.007983,0.000116
1838.321505,0.003656,0.00771,0.000165
1805.542548,0.004832,0.022585,0.000141
1776.296133,0.003442,0.009236,0.00015
1783.128137,0.00301,0.001978,0.000118
1809.113871,0.003035,0.001581,0.000124
1762.734933,0.003213,0.00622,0.000125
1699.539967,0.003532,0.005933,0.000154
1727.882259,0.003033,0.005774,0.000132
1708.386668,0.002463,0.000229,0.000111
1684.166674,0.003237,0.004941,0.000145
1777.851467,0.003233,0.005029,0.000158
1690.50263,0.002926,0.001576,0.000131
1678.321333,0.002472,0.001265,0.000128
1625.223645,0.00284,0.000897,0.000126
1653.807475,0.003179,0.006283,0.000143
1649.220954,0.003161,0.004454,0.000127
1624.744801,0.002838,0.003053,0.000127
1698.637602,0.002588,0.001552,0.000127
1635.915208,0.002549,0.000551,0.00012
1593.280363,0.001977,0.000244,0.000128
1620.913757,0.00208,0.000193,0.000132
1541.171401,0.003066,0.002518,0.000149
1480.336144,0.002398,0.000352,0.000109
1477.744917,0.002135,0.000479,0.000098
1468.134935,0.002273,0.000257,0.00009
1493.292822,0.002366,0.003377,0.000127
1468.636748,0.002789,0.003741,0.000107
1508.361245,0.003198,0.003249,0.000132
1498.196879,0.002082,0.000418,0.000079
1492.625396,0.00183,0.000124,0.000078
1424.34825,0.001896,0.000124,0.000106
1454.858554,0.002107,0.000977,0.000089
1444.493826,0.002516,0.001159,0.00011
1519.89355,0.003536,0.011134,0.000145
1497.907952,0.003089,0.00485,0.000109
1473.687342,0.00257,0.000704,0.000127
1391.604149,0.002025,0.000169,0.000125
1504.40111,0.002861,0.002171,0.000131
1434.469905,0.003218,0.004955,0.000111
1373.781077,0.002547,0.001321,0.000116
1425.668455,0.003192,0.004346,0.00014
1337.115314,0.003129,0.004556,0.000161
1349.058348,0.002542,0.0022,0.000097
1375.048065,0.00305,0.004823,0.000081
1396.954312,0.00299,0.00178,0.000131
1411.349999,0.003217,0.005149,0.000149
1366.008965,0.003171,0.004812,0.000121
1290.820206,0.002628,0.000246,0.000126
1200.135855,0.002468,0.000267,0.000096
1348.808926,0.003003,0.001598,0.000143
1320.686737,0.003086,0.005415,0.000126
1311.986111,0.002561,0.000943,0.00013
1301.696804,0.002176,0.000658,0.000087
1276.105341,0.001942,0.00015,0.000076
1294.698637,0.002124,0.000193,0.000072
1380.539053,0.002002,0.00014,0.000103
1388.452479,0.001968,0.000128,0.000068
1250.774333,0.001992,0.000136,0.000091
1429.140271,0.002014,0.00016,0.000098
1314.997709,0.001958,0.000122,0.000066
1301.465575,0.001964,0.000116,0.000058
1296.302692,0.002042,0.000137,0.000083
1300.239228,0.002461,0.00214,0.000089
1344.94541,0.002714,0.001826,0.000129
1316.139476,0.003163,0.005147,0.000103
1352.580213,0.002963,0.004972,0.000159
1260.347325,0.002542,0.002604,0.000083
1342.726674,0.002173,0.000962,0.000098
1257.169485,0.002123,0.000135,0.000073
1282.674227,0.002166,0.000156,0.00011
1346.697733,0.002078,0.000118,0.000091
1284.881671,0.002304,0.000209,0.000091
1296.474674,0.002067,0.000112,0.000071
1328.23374,0.00206,0.000654,0.000105
1320.806608,0.002018,0.000369,0.000103
1338.572206,0.001984,0.000131,0.000115
1384.89683,0.001913,0.000298,0.000074
1334.309316,0.001849,0.000151,0.000093
1329.509874,0.002001,0.000323,0.000069
1277.919989,0.001943,0.000127,0.000095
1286.931455,0.002099,0.000158,0.000094
1284.094776,0.001936,0.000352,0.000063
1292.908051,0.001927,0.000091,0.000077
1338.506976,0.002102,0.000503,0.000092
1199.093038,0.001905,0.000212,0.000091
1239.521154,0.002011,0.000121,0.00007
1303.4322,0.002183,0.000251,0.000071
1258.477456,0.002046,0.000195,0.000106
1314.609228,0.002015,0.000112,0.00011
1276.866018,0.001888,0.000142,0.000082
1262.987632,0.002024,0.000116,0.000091
1331.614868,0.003142,0.005981,0.00011
1291.068312,0.002065,0.000151,0.000085
1349.357578,0.001949,0.000113,0.000079
1323.096208,0.002327,0.001053,0.000114
1256.943054,0.002133,0.000128,0.000094
1335.194859,0.002125,0.000111,0.000093
1267.69637,0.002751,0.001629,0.00011
1358.146184,0.002457,0.001738,0.000114
1291.490942,0.002253,0.001913,0.000079
1314.68628,0.002024,0.000104,0.000079
1274.432061,0.001989,0.000773,0.00007
1290.61766,0.001877,0.000127,0.000068
1284.657193,0.002081,0.000109,0.000092
1302.541853,0.0021,0.000116,0.000072
1244.144473,0.0028,0.001166,0.000101
1264.644591,0.003278,0.006647,0.000128
1306.879234,0.002072,0.000118,0.000081
1263.321461,0.002286,0.00122,0.000063
1263.768179,0.002195,0.000136,0.000115
1333.194533,0.002212,0.000137,0.000118
1316.361263,0.002053,0.000134,0.000097
1310.845435,0.002018,0.000214,0.000078
1262.834834,0.002316,0.000835,0.000083
1245.725293,0.002112,0.000308,0.000086
1262.033783,0.002032,0.000109,0.000073
1277.548714,0.001861,0.000106,0.000093
1231.894636,0.002193,0.00013,0.000078
1291.174875,0.002151,0.00014,0.0001
1263.361987,0.002563,0.001893,0.000112
1241.895516,0.00253,0.00433,0.000093
1264.335267,0.001991,0.000706,0.00008
1226.261472,0.001977,0.000222,0.00008
1303.490314,0.002147,0.00087,0.000071
1236.32405,0.001921,0.000097,0.000085
1245.387057,0.001835,0.000135,0.000092
1222.276234,0.002052,0.000194,0.000067
1199.719326,0.001974,0.000151,0.000091
1190.547665,0.001958,0.000113,0.000085
1195.159502,0.001816,0.000083,0.000069
1189.462687,0.002057,0.000113,0.000075
1281.253056,0.002142,0.000178,0.000115
1191.003686,0.001946,0.000347,0.000068
1172.103229,0.002136,0.000287,0.00013
1171.326701,0.001779,0.000078,0.000083
1264.113953,0.002971,0.002586,0.000101
1226.208052,0.002942,0.002548,0.000119
1215.019856,0.003053,0.004686,0.000097
1218.365132,0.002782,0.001992,0.000125
1190.1945,0.002122,0.000112,0.000087
1192.304988,0.002438,0.001693,0.000097
1164.01935,0.002159,0.000138,0.000079
1199.578797,0.003153,0.004189,0.00011
1234.514926,0.002402,0.000256,0.000091
1178.3486,0.002391,0.00018,0.000103
1205.987079,0.002197,0.000682,0.000083
1268.052411,0.002117,0.000162,0.000089
1214.766889,0.002205,0.000168,0.000091
1164.542701,0.002005,0.000324,0.000091
1185.55152,0.00206,0.000156,0.000099
1189.650155,0.002361,0.000157,0.000118
1192.835403,0.002669,0.003761,0.000112
1176.909336,0.002489,0.000472,0.000096
1249.580294,0.002506,0.002747,0.000096
1220.655437,0.002083,0.000404,0.000092
1107.767511,0.002019,0.000121,0.000111
1156.68464,0.00227,0.000156,0.000162
1157.174892,0.002125,0.001148,0.000089
1206.407187,0.002654,0.002258,0.000079
1124.779995,0.00228,0.000447,0.000091
1144.61498,0.002167,0.000255,0.000089
1122.495012,0.002235,0.000202,0.000081
1190.601404,0.00223,0.001164,0.00012
1200.9964,0.002221,0.002842,0.000111
1160.924439,0.002852,0.003121,0.000115
1185.69999,0.002401,0.000782,0.000096
1137.658692,0.002428,0.00078,0.000112
1149.451181,0.001847,0.000079,0.000067
1101.358384,0.002152,0.00061,0.000089
1093.042303,0.002145,0.000104,0.000098
1101.278255,0.002092,0.000491,0.000088
1072.068709,0.002167,0.000172,0.000103
1083.476568,0.001914,0.000114,0.00009
1044.935559,0.002392,0.001871,0.000104
1071.096212,0.002114,0.001004,0.000074
1127.098878,0.001917,0.000104,0.000074
1153.040616,0.002009,0.000117,0.000085
1094.543218,0.002055,0.000103,0.000092
1121.672995,0.002076,0.00011,0.000077
1044.971879,0.002259,0.003383,0.000085
1204.388967,0.002106,0.000135,0.000105
1122.987773,0.002097,0.000097,0.00008
1104.58009,0.002356,0.000157,0.000121
1124.398786,0.002329,0.000247,0.000095
1126.020657,0.002148,0.000132,0.000095
1143.831588,0.002261,0.000154,0.000105
1116.521366,0.002381,0.000566,0.000111
1110.103727,0.002579,0.000187,0.000108
1049.712955,0.002986,0.004265,0.000096
1073.613369,0.002834,0.00049,0.000125
1136.430496,0.002762,0.001167,0.000111
1172.976849,0.002329,0.000176,0.000137
1120.822412,0.002394,0.000173,0.000173
1094.41672,0.002241,0.000175,0.000117
1125.645519,0.002644,0.001249,0.000155
1126.535569,0.002712,0.000285,0.000171
1153.174083,0.002475,0.001103,0.000116
1157.096817,0.002158,0.000148,0.000095
1138.196262,0.002189,0.000217,0.000082
1106.501155,0.002464,0.002318,0.000093
1192.309008,0.002329,0.000149,0.000086
1129.992212,0.002478,0.000671,0.000087
1016.083411,0.002655,0.000167,0.000103
1083.70986,0.002681,0.002134,0.000111
1064.624579,0.002622,0.002689,0.000141
1104.228326,0.002937,0.001513,0.000129
1260.760835,0.002551,0.000396,0.000118
1190.935062,0.002479,0.000227,0.000107
1168.664462,0.002644,0.00302,0.000158
1227.13662,0.002903,0.001551,0.00011
1209.86151,0.003007,0.002655,0.000139
1218.428849,0.002858,0.003317,0.000113
1218.712891,0.002698,0.000419,0.000114
1215.678169,0.002604,0.000806,0.000148
1211.781574,0.002793,0.004116,0.00013
1252.169579,0.002109,0.000134,0.000086
1211.725982,0.002472,0.000159,0.000112
1198.691366,0.002861,0.00166,0.00014
1250.695913,0.002838,0.001033,0.000147
1229.346613,0.00302,0.002248,0.000171
1263.070078,0.002647,0.002466,0.000151
1177.20849,0.002827,0.001291,0.000134
1157.333762,0.002727,0.001607,0.000148
1186.981759,0.00261,0.000503,0.000092
1222.85359,0.002717,0.001003,0.000091
1264.656676,0.002761,0.000226,0.00015
1205.713146,0.002603,0.000176,0.000266
1310.620424,0.002416,0.000221,0.000108
1332.020523,0.002923,0.002334,0.000061
1276.199919,0.002491,0.000185,0.000151
1217.4653,0.002537,0.000346,0.00009
1229.819666,0.002336,0.000218,0.00016
1266.310211,0.00269,0.001174,0.000123
1187.37666,0.002374,0.000182,0.000103
1257.312645,0.002586,0.000237,0.00011
1291.846064,0.002799,0.001928,0.000111
1251.826588,0.002485,0.001008,0.000092
1378.486519,0.002782,0.001802,0.000128
1447.98171,0.00277,0.000277,0.000248
1385.240965,0.003015,0.002841,0.00014
1307.045574,0.002267,0.00035,0.000131
1373.088759,0.002747,0.001406,0.000104
1313.651976,0.002238,0.000737,0.000057
1337.011539,0.002087,0.000401,0.000104
1351.791384,0.001914,0.000098,0.000104
1395.494433,0.002132,0.000131,0.000077
1356.234991,0.002148,0.000173,0.000069
1377.19435,0.00287,0.004405,0.00014
1343.780314,0.002417,0.001388,0.000055
1462.338607,0.002314,0.000745,0.000077
1376.91901,0.002315,0.000215,0.000085
1421.719827,0.002909,0.005205,0.000107
1455.676135,0.002326,0.000165,0.000129
1451.126682,0.00215,0.000158,0.000092
1400.029022,0.002503,0.000932,0.000116
1405.729052,0.002313,0.000182,0.000101
1460.236254,0.002638,0.000225,0.000103
1459.844263,0.002468,0.000315,0.00011
1554.886637,0.002957,0.004285,0.000143
1464.976972,0.002368,0.000337,0.000113
1432.969611,0.002131,0.000152,0.000066
1408.519451,0.002042,0.001008,0.000121
1450.217116,0.001943,0.000133,0.000078
1500.328359,0.002148,0.001589,0.000091
1535.662967,0.001963,0.000173,0.000117
1456.597339,0.002457,0.000166,0.000103
1454.102681,0.002497,0.000232,0.000134
1387.032927,0.002402,0.000692,0.00013
1547.31931,0.002499,0.000615,0.00014
1483.053798,0.002602,0.001391,0.000172
1510.650384,0.002904,0.000436,0.000332
1582.767097,0.003024,0.00345,0.000159
1468.971874,0.002707,0.001486,0.000137
1566.303631,0.002269,0.000192,0.000122
1527.177719,0.002336,0.001912,0.000092
1571.431923,0.002371,0.000428,0.000094
1484.673287,0.001995,0.000138,0.000048
1619.365227,0.002228,0.000869,0.000123
1595.280044,0.002576,0.003127,0.000139
1560.795359,0.0023,0.000177,0.000137
1555.299946,0.002557,0.000282,0.000123
1692.726784,0.002397,0.000742,0.000084
1622.240936,0.003433,0.007904,0.000184
1580.36618,0.002627,0.001396,0.000117
1628.941252,0.002018,0.000184,0.000122
1647.789456,0.002126,0.00024,0.00013
1649.098097,0.002076,0.000167,0.000114
1606.834041,0.001871,0.000133,0.000075
1615.006645,0.001969,0.000147,0.000121
1565.115499,0.002314,0.000468,0.000096
1537.944369,0.002571,0.001068,0.00015
1523.26139,0.002075,0.000171,0.000075
1548.562789,0.001902,0.00018,0.000088
1588.34447,0.002144,0.000204,0.000104
1537.532371,0.002449,0.000304,0.000109
1778.011301,0.002527,0.001632,0.000112
1681.66619,0.002273,0.000253,0.000115
1788.241104,0.00196,0.000191,0.000114
1646.027181,0.001865,0.000131,0.000102
1579.761504,0.002036,0.000143,0.000082
1666.091874,0.002102,0.000158,0.000118
1617.595478,0.002029,0.000155,0.000093
1590.864127,0.001961,0.000217,0.000066
1644.502889,0.002077,0.000172,0.000087
1665.422378,0.002372,0.00059,0.000124
1700.174434,0.002867,0.002951,0.000127
1669.911012,0.002657,0.000534,0.000173
1692.910322,0.002971,0.000358,0.000164
1658.857504,0.003119,0.002225,0.000211
1732.391396,0.002284,0.000161,0.000111
1671.405762,0.002348,0.000197,0.00011
1657.498048,0.00209,0.000185,0.000108
1698.764754,0.001809,0.000156,0.000078
1707.986255,0.001961,0.000171,0.0001
1742.195098,0.002176,0.000171,0.000109
1732.627895,0.002485,0.000237,0.000129
1704.466799,0.002821,0.001609,0.000185
1803.237433,0.002708,0.002828,0.00017
1824.509003,0.002508,0.001609,0.000133
1715.707868,0.00233,0.000218,0.000129
1733.392797,0.00229,0.000468,0.000119
1696.304141,0.002691,0.000319,0.000132
1727.513783,0.002638,0.002375,0.000129
1690.183826,0.002252,0.000163,0.00009
1735.271252,0.001911,0.000199,0.000116
1743.919757,0.002576,0.000593,0.000122
1743.956523,0.002858,0.001599,0.000113
1798.917577,0.002661,0.001171,0.00015
1758.104688,0.002734,0.003031,0.000134
1761.443683,0.002727,0.000329,0.000142
1817.320429,0.002687,0.000262,0.000111
1731.326751,0.002707,0.001428,0.000121
1727.885721,0.002854,0.000506,0.000138
1705.31627,0.002357,0.000176,0.000132
1732.958131,0.00259,0.000874,0.000122
1753.151598,0.002706,0.001203,0.000163
1757.65125,0.002219,0.000485,0.000125
1758.872317,0.001968,0.000184,0.00011
1754.086266,0.002378,0.000692,0.000152
1841.295887,0.002433,0.001265,0.000163
1806.368001,0.002645,0.000359,0.000108
1834.941036,0.002882,0.001309,0.000134
1805.646689,0.002788,0.0012,0.000149
1788.319502,0.002517,0.000962,0.000129
1759.498841,0.002946,0.001554,0.000241
1771.099953,0.002507,0.000932,0.000196
1874.878954,0.002488,0.000584,0.000092
1856.975539,0.002558,0.001271,0.000111
1886.12839,0.002715,0.001245,0.000129
1802.557054,0.002401,0.000346,0.0001
1821.373628,0.002546,0.001123,0.000201
1865.930377,0.003215,0.00509,0.00018
1829.625193,0.002965,0.001947,0.000134
1737.184317,0.002105,0.000179,0.000122
1688.618318,0.002108,0.000191,0.000158
1651.345043,0.002464,0.000598,0.000147
1768.05177,0.002656,0.001249,0.000141
1771.131564,0.002741,0.004765,0.000119
1662.771901,0.002353,0.000181,0.000122
1645.921595,0.002462,0.001517,0.000121
1699.771916,0.002265,0.000221,0.000185
1621.667126,0.002461,0.000835,0.000135
1659.363646,0.002826,0.001116,0.000184
1676.137427,0.002849,0.002328,0.000172
1702.65297,0.002888,0.001738,0.000144
1680.424326,0.002686,0.003222,0.000116
1659.774797,0.002563,0.000278,0.000129
1675.373484,0.00283,0.002976,0.000166
1747.229065,0.002705,0.000737,0.000127
1730.380111,0.002493,0.000594,0.000132
1764.950165,0.002834,0.000807,0.000161
1751.260372,0.002587,0.00027,0.000126
1725.121448,0.002579,0.000261,0.000146
1769.749247,0.002631,0.000261,0.000103
1806.883245,0.002762,0.001002,0.00012
1767.989165,0.002696,0.000672,0.000148
1693.405626,0.002898,0.000646,0.00018
1764.305891,0.002872,0.001454,0.000171
1727.126157,0.00259,0.000251,0.000161
1704.066713,0.002532,0.000721,0.000119
1735.802776,0.002568,0.001168,0.000146
1764.788336,0.002717,0.000485,0.000124
1736.429293,0.002712,0.000584,0.000124
1796.561281,0.002544,0.000317,0.000165
1833.371999,0.002569,0.001433,0.000145
1933.548839,0.002667,0.001622,0.000109
1887.808895,0.00242,0.000987,0.000102
1747.879544,0.002286,0.002146,0.000113
1782.66016,0.002121,0.0003,0.000082
1765.384612,0.002153,0.000311,0.000126
1794.497107,0.002899,0.003411,0.000106
1789.347376,0.002248,0.001859,0.000163
1835.378432,0.002718,0.000839,0.000151
1876.349401,0.002864,0.001825,0.0001
1858.959989,0.002929,0.0035,0.000142
1832.718176,0.002843,0.000774,0.000161
1779.676921,0.003489,0.011092,0.000125
1864.704236,0.003046,0.001667,0.00016
1852.907798,0.002916,0.002927,0.000178
1871.524897,0.002869,0.000473,0.000168
1833.123278,0.002822,0.000827,0.000155
1808.19186,0.002344,0.00032,0.000134
1856.674082,0.002339,0.000214,0.000116
1833.294382,0.002229,0.000234,0.000094
1914.597735,0.002054,0.000319,0.000137
1869.356799,0.002708,0.001535,0.000145
1854.562803,0.002804,0.001463,0.000141
1936.4062,0.002659,0.001331,0.000183
1956.460107,0.002931,0.000821,0.00017
1877.640708,0.00282,0.000841,0.000222
1844.451529,0.002755,0.000927,0.000129
1836.084923,0.002706,0.002225,0.000123
1925.933009,0.003114,0.00251,0.000166
1902.789286,0.003052,0.003002,0.000156
1870.124575,0.002687,0.002171,0.000171
1959.379895,0.002854,0.004554,0.000123
1933.010261,0.003026,0.003792,0.000114
1948.249665,0.003271,0.00473,0.000146
1923.462537,0.002596,0.002322,0.000144
1898.626056,0.002492,0.001243,0.000148
2030.007274,0.002883,0.002198,0.000149
2058.87006,0.002218,0.00019,0.000132
2038.967254,0.002157,0.000225,0.0001
2038.081479,0.002064,0.000558,0.000118
2010.106479,0.00323,0.004386,0.000151
2053.803164,0.002609,0.000812,0.000122
2104.11025,0.00272,0.001645,0.000105
2045.658304,0.002115,0.000226,0.000097
2058.661443,0.002125,0.000185,0.000108
2132.010925,0.002315,0.000799,0.00014
2138.250808,0.002354,0.001646,0.000135
2140.154778,0.002697,0.00135,0.000153
2108.631789,0.002396,0.001689,0.000127
2158.254397,0.002486,0.001203,0.000149
2186.29308,0.002344,0.001051,0.000139
2168.095775,0.002115,0.000291,0.000166
2147.175633,0.002279,0.002316,0.00012
2346.589667,0.002427,0.002117,0.000131
2285.943361,0.002149,0.001213,0.0001
2269.699054,0.002548,0.002475,0.000124
2160.694012,0.003132,0.002957,0.000188
2203.984398,0.002809,0.002398,0.000114
2227.824282,0.002285,0.003534,0.000115
2113.697388,0.002044,0.000207,0.000111
2166.112029,0.0024,0.000318,0.000118
2237.327035,0.002186,0.001205,0.000121
2227.787617,0.001994,0.000516,0.000141
2261.522394,0.002226,0.00266,0.000114
2212.995199,0.002756,0.002368,0.000126
2114.979071,0.002081,0.00029,0.000109
2195.40862,0.002964,0.003632,0.000161
2174.557315,0.003414,0.007662,0.000172
2176.469414,0.003066,0.001901,0.000187
2238.737082,0.002695,0.00166,0.000135
2247.049185,0.003547,0.006655,0.000197
2266.551418,0.003166,0.001754,0.000173
2250.003932,0.003564,0.008394,0.000193
2183.436472,0.002558,0.001542,0.000139
2233.787349,0.003002,0.005911,0.000141
2241.876809,0.003202,0.005599,0.000145
2264.731285,0.003165,0.004341,0.000198
2403.546381,0.002034,0.000586,0.000097
2375.326624,0.003221,0.009466,0.000176
2269.590188,0.003464,0.00768,0.000178
2464.917001,0.003481,0.005117,0.0002
2353.07664,0.003583,0.008707,0.000154
2353.598966,0.003342,0.006104,0.000154
2247.170135,0.00342,0.007629,0.000155
2255.059297,0.003312,0.004398,0.000193
2249.0039,0.003667,0.015053,0.000182
2236.071345,0.003352,0.007203,0.000132
2162.246145,0.003779,0.010119,0.000176
2256.075207,0.003699,0.008149,0.000175
2277.526488,0.003012,0.003175,0.000165
2203.330401,0.003553,0.00842,0.000186
2239.586258,0.003147,0.005454,0.000172
2248.93564,0.004165,0.023478,0.000188
2319.835345,0.003919,0.016054,0.000191
2291.985228,0.004141,0.020159,0.000195
2289.811467,0.00382,0.013275,0.000115
2213.678857,0.003916,0.016754,0.000137
2280.244741,0.003868,0.022238,0.000148
2278.475298,0.003511,0.007189,0.000122
2262.152478,0.003176,0.008507,0.000112
2293.360493,0.003207,0.006043,0.000159
2378.103455,0.002473,0.001271,0.000138
2330.998939,0.002278,0.001034,0.000138
2365.060754,0.002145,0.000267,0.000153
2264.30682,0.002231,0.000866,0.000171
2299.513617,0.003501,0.012531,0.000146
2040.545457,0.002118,0.000271,0.00013
2366.381741,0.002343,0.001721,0.000095
2239.091409,0.003805,0.013141,0.000146
2243.904461,0.003999,0.012381,0.000166
2194.140895,0.003824,0.013925,0.000159
2302.964117,0.004064,0.013571,0.000162
2277.144654,0.003809,0.009773,0.000155
2293.578045,0.004455,0.023622,0.000175
2267.610532,0.003396,0.007438,0.000107
2297.577176,0.003181,0.00377,0.000199
2375.215719,0.002221,0.000472,0.000161
2307.373706,0.00288,0.004535,0.000228
2248.096433,0.003305,0.008294,0.000109
2232.458409,0.003908,0.010212,0.000145
2152.250078,0.003508,0.006803,0.000261
2244.696413,0.003548,0.009129,0.000222
2390.698028,0.002104,0.000235,0.000145
2336.153529,0.002264,0.001564,0.000078
2297.960117,0.003611,0.018523,0.000131
2226.067432,0.004422,0.02461,0.000121
2295.648715,0.003535,0.010914,0.00013
2265.797207,0.003582,0.014337,0.000127
2182.226888,0.003796,0.016549,0.000102
2179.880929,0.004668,0.027857,0.000115
2288.029235,0.004001,0.013727,0.000134
2402.529149,0.00383,0.012718,0.000157
2325.880228,0.003982,0.018965,0.000109
2351.549169,0.003612,0.008006,0.000197
2326.0588,0.003804,0.010315,0.000156
2287.864635,0.003716,0.012371,0.000116
2244.474156,0.004075,0.015333,0.00016
2306.279377,0.003846,0.012063,0.000138
2122.65698,0.005733,0.044645,0.000101
2266.606132,0.005784,0.0498,0.000097
2247.047619,0.004272,0.021039,0.000116
2353.198318,0.003349,0.014079,0.000102
2281.930977,0.003667,0.014741,0.000132
2173.197581,0.003828,0.012037,0.000145
2194.540711,0.004625,0.025635,0.000146
2216.642816,0.004459,0.024139,0.00013
2145.845535,0.004723,0.026058,0.000121
2240.505549,0.002892,0.005559,0.000096
2266.691255,0.003617,0.008776,0.000124
2221.148768,0.003132,0.003404,0.000162
2229.494311,0.004063,0.016628,0.000122
2223.868586,0.00416,0.021285,0.000153
2218.409716,0.003993,0.016952,0.000135
2199.165197,0.004352,0.019784,0.000159
2279.575496,0.004204,0.024143,0.00015
2289.114113,0.003419,0.010824,0.000139
2248.064246,0.004314,0.021724,0.000123
2156.672632,0.004681,0.02464,0.000117
2223.367252,0.004061,0.014569,0.000128
2292.765685,0.004307,0.019833,0.000142
2186.177443,0.005141,0.03739,0.000145
2227.922282,0.005117,0.034022,0.000158
2261.771966,0.005088,0.035989,0.000172
2277.501287,0.004407,0.021857,0.000145
2224.570471,0.004726,0.031077,0.000123
2215.673302,0.005144,0.038455,0.000122
2158.333125,0.004666,0.029152,0.000104
2211.769474,0.004171,0.01789,0.000143
2281.199013,0.00384,0.010447,0.000176
2309.52391,0.004038,0.015229,0.000146
2243.73568,0.004645,0.024425,0.000131
2265.666939,0.003547,0.010212,0.000113
2588.157214,0.002312,0.001779,0.000122
2420.249443,0.002698,0.004516,0.000115
2277.434659,0.002994,0.008348,0.000121
2376.584626,0.002101,0.000703,0.000133
2299.836336,0.003238,0.0061,0.00013
2395.711018,0.002241,0.001539,0.000119
2313.581428,0.003125,0.006557,0.000135
2258.037759,0.002883,0.004432,0.000105
2179.595486,0.004917,0.032181,0.000106
2290.483349,0.003537,0.00623,0.000131
2240.911682,0.002836,0.004596,0.000124
2229.783164,0.003992,0.015677,0.00017
2233.389011,0.003059,0.007034,0.000125
2153.882981,0.004903,0.025478,0.000139
2246.293692,0.00422,0.018668,0.000154
2120.420494,0.00477,0.02604,0.000129
2218.230316,0.004915,0.028846,0.000133
2213.570031,0.004652,0.02575,0.00012
2270.889306,0.00289,0.004319,0.000129
2299.175334,0.004044,0.019461,0.000107
2208.157376,0.003674,0.011508,0.000144
2204.932888,0.004084,0.011885,0.000171
2191.477421,0.004991,0.029289,0.000186
2263.327305,0.004247,0.017054,0.000124
2351.361781,0.003386,0.009571,0.000145
2310.20912,0.002451,0.00166,0.000117
2316.740215,0.00233,0.00055,0.00012
2356.047116,0.002275,0.000923,0.000159
2400.186295,0.002239,0.001111,0.000135
2327.496146,0.002103,0.000408,0.000085
2372.946312,0.00228,0.000822,0.000161
2378.247191,0.002125,0.000314,0.000134
2315.009767,0.003605,0.01523,0.000111
2256.672903,0.002274,0.000999,0.000123
2188.916576,0.002099,0.000211,0.000116
2303.362682,0.00271,0.005618,0.000129
2290.416681,0.004513,0.02158,0.000162
2239.758986,0.003676,0.01147,0.000137
2257.590861,0.002193,0.000228,0.000109
2215.986491,0.003152,0.009383,0.000109
2255.47224,0.003884,0.01406,0.000167
2254.178239,0.003683,0.014196,0.000144
2191.332173,0.004187,0.020825,0.000124
2203.924967,0.003557,0.017139,0.000169
2417.746067,0.002885,0.006828,0.000147
2076.387857,0.005269,0.039561,0.000131
2252.329901,0.004156,0.020399,0.000128
2310.207927,0.003988,0.015472,0.000151
2267.275056,0.004013,0.015185,0.00013
2226.594687,0.00412,0.011723,0.000218
2160.811795,0.00519,0.037615,0.000158
2363.4255,0.002164,0.001068,0.000117
2236.46839,0.002507,0.001751,0.000154
2237.894548,0.003778,0.012054,0.000176
2295.716979,0.003736,0.008901,0.000186
2285.583052,0.003762,0.010733,0.000138
2253.529687,0.004131,0.016953,0.00013
2236.307881,0.004045,0.017271,0.000148
2324.602831,0.004299,0.023002,0.000128
2374.537744,0.004155,0.019227,0.00014
2247.526486,0.005073,0.032576,0.000133
2331.048279,0.005315,0.04462,0.000167
2218.688046,0.005222,0.039249,0.000138
2144.807501,0.005249,0.036372,0.000117
2191.320501,0.005343,0.036059,0.00012
2174.617611,0.005634,0.04817,0.000114
2121.597243,0.005314,0.039312,0.00012
2220.853093,0.004465,0.028264,0.000142
2239.849,0.004498,0.022336,0.000119
2231.783214,0.003668,0.00935,0.000111
2161.16238,0.005841,0.049208,0.000124
2257.094325,0.00376,0.012549,0.000143
2364.453885,0.004042,0.018396,0.000162
2262.498794,0.003655,0.012122,0.000154
2270.183746,0.004386,0.018531,0.00014
2315.118831,0.004237,0.018516,0.000159
2306.638205,0.004226,0.013835,0.000162
2193.505712,0.004657,0.025691,0.000141
2234.798182,0.004711,0.029809,0.000136
2207.159278,0.00489,0.034642,0.000119
2219.722367,0.004973,0.031395,0.00011
2147.761545,0.00602,0.053675,0.000114
2231.542556,0.005635,0.047474,0.00015
2238.933178,0.004656,0.028434,0.000114
2354.410716,0.003831,0.011366,0.000135
2293.039164,0.003106,0.006986,0.000138
2227.444518,0.003354,0.012315,0.000143
2194.355862,0.00359,0.013328,0.000104
2307.780035,0.003106,0.005142,0.00014
2297.220546,0.003694,0.012887,0.000145
2316.275829,0.003682,0.008926,0.000143
2238.156449,0.00528,0.045771,0.000112
2094.530668,0.005284,0.038308,0.00011
2434.393446,0.004582,0.021992,0.000158
2410.716566,0.003038,0.005037,0.000115
2331.84963,0.003544,0.009365,0.000146
2473.962463,0.003073,0.009542,0.000145
2417.93901,0.002275,0.000928,0.000122
2477.048861,0.002205,0.000924,0.000137
2539.045161,0.002208,0.001242,0.000098
2434.410614,0.003857,0.020354,0.000102
2349.015345,0.004854,0.030692,0.000149
2333.90671,0.004399,0.02447,0.000113
2355.397501,0.003806,0.013004,0.000138
2340.218145,0.003824,0.015221,0.000115
2451.140181,0.003524,0.01478,0.000111
2285.940993,0.005163,0.033538,0.000114
2445.20637,0.002254,0.0008,0.000097
2403.642469,0.003305,0.011194,0.000145
2184.615892,0.004751,0.027685,0.000116
2345.235669,0.003142,0.009472,0.000114
2293.236675,0.003935,0.017379,0.000127
2386.037831,0.002911,0.004398,0.000144
2305.229726,0.002181,0.001377,0.000128
2308.348267,0.002849,0.008688,0.000111
2306.352379,0.002223,0.001332,0.000096
2240.47051,0.003316,0.013708,0.000131
2105.945301,0.004854,0.027197,0.000158
2210.716849,0.004172,0.017302,0.000162
2208.734872,0.004124,0.016286,0.000113
2217.126174,0.00377,0.010878,0.000146
2247.349245,0.004093,0.018256,0.00015
2237.788158,0.003877,0.0125,0.000114
2221.344374,0.00416,0.017903,0.000169
2175.768543,0.00412,0.017255,0.000208
2194.088007,0.003626,0.012473,0.000139
2115.071225,0.003804,0.017639,0.000151
2160.847539,0.003564,0.013363,0.000107
2141.036119,0.003991,0.015056,0.00012
2055.201897,0.003326,0.008847,0.00013
2157.29087,0.003742,0.013594,0.000112
2259.009051,0.003079,0.005849,0.000202
2225.998689,0.00259,0.001917,0.000113
2203.296101,0.002332,0.000589,0.000128
2136.126067,0.002662,0.003913,0.00012
2112.988301,0.003516,0.010066,0.000164
2054.690146,0.004122,0.01751,0.000132
2091.988956,0.003249,0.013092,0.000106
2033.593272,0.004219,0.017785,0.000121
1970.587944,0.004872,0.029314,0.000114
1987.944069,0.004407,0.01714,0.000114
2009.843317,0.003947,0.013344,0.000128
2082.19796,0.002555,0.005231,0.000164
1898.384303,0.003403,0.009223,0.000134
1985.263452,0.003585,0.008297,0.000142
2028.192428,0.003858,0.011646,0.000137
2016.102945,0.003046,0.005154,0.000122
1941.91851,0.002926,0.004133,0.000098
1963.608523,0.003111,0.004586,0.000132
1983.562853,0.003429,0.007215,0.000127
2011.480029,0.0028,0.001665,0.000132
2028.983052,0.003516,0.007262,0.000119
1909.352431,0.003139,0.003832,0.000103
1921.051082,0.003242,0.005121,0.000121
1910.577083,0.002931,0.003084,0.00011
1845.16032,0.003149,0.003904,0.000123
1884.217666,0.002826,0.004044,0.000138
1883.025545,0.003083,0.005728,0.000134
1808.753226,0.002053,0.000198,0.000092
1814.853757,0.004314,0.017306,0.000192
1851.348398,0.003484,0.005905,0.000104
1838.421534,0.003837,0.014962,0.000125
1825.733985,0.003176,0.007118,0.000114
1786.478188,0.002935,0.001216,0.000135
1824.395476,0.00316,0.003054,0.000176
1810.514287,0.002982,0.002354,0.000154
1777.258897,0.003691,0.012634,0.000174
1775.384771,0.003742,0.006755,0.000151
1736.790617,0.003868,0.011518,0.000125
1709.961917,0.002931,0.002552,0.000108
1758.931243,0.003151,0.003923,0.000107
1713.599107,0.002974,0.004862,0.000118
1767.968285,0.002672,0.001736,0.000106
1695.156259,0.002648,0.002256,0.000127
1686.059804,0.003046,0.005191,0.000143
1673.636016,0.002923,0.003005,0.000108
1629.047857,0.002289,0.000615,0.000107
1710.562855,0.002278,0.000173,0.000106
1663.85966,0.003195,0.007199,0.000095
1646.994337,0.00304,0.004393,0.00011
1660.917482,0.003256,0.004825,0.000119
1648.734816,0.003066,0.004124,0.000108
1561.980366,0.002698,0.002058,0.00011
1525.38159,0.002718,0.002625,0.000117
1531.911185,0.002744,0.002474,0.000139
1578.758064,0.002736,0.001765,0.000093
1489.085453,0.002929,0.00386,0.000111
1467.742222,0.002599,0.002531,0.000126
1504.050077,0.003088,0.003962,0.000119
1427.355301,0.003217,0.003994,0.00015
1567.567124,0.002797,0.002325,0.000103
1503.260972,0.00293,0.003149,0.000117
1431.949256,0.003016,0.002569,0.000134
1481.123993,0.003122,0.001138,0.00015
1541.931407,0.003125,0.002795,0.000186
1457.037533,0.003381,0.009327,0.000116
1459.75197,0.002258,0.000131,0.000097
1349.022969,0.003201,0.007429,0.000106
1402.256778,0.003291,0.007296,0.000118
1423.565008,0.003303,0.006804,0.000144
1426.113093,0.002243,0.000431,0.000105
1365.844858,0.002234,0.000343,0.000099
1370.316604,0.00224,0.000453,0.000102
1366.811115,0.001994,0.000185,0.000102
1447.595037,0.002265,0.000616,0.000091
1389.818497,0.002641,0.00132,0.000095
1367.008838,0.0025,0.000864,0.000111
1431.392239,0.002647,0.000383,0.000171
1461.409979,0.002068,0.000336,0.00013
1419.044569,0.00226,0.000245,0.000102
1391.831563,0.002284,0.00193,0.000087
1324.548104,0.002976,0.004335,0.000049
1312.842537,0.002839,0.002173,0.000121
1281.846452,0.002789,0.001973,0.000082
1329.568666,0.002965,0.005648,0.000057
1258.331194,0.003373,0.009734,0.00008
1252.332472,0.002786,0.004023,0.000075
1286.492557,0.003728,0.007455,0.000185
1318.427126,0.003751,0.010332,0.000082
1293.114272,0.003448,0.010157,0.000103
1322.571716,0.003261,0.005847,0.000163
1329.175509,0.002651,0.001717,0.000137
1360.021569,0.003119,0.00487,0.000073
1348.806261,0.003225,0.005048,0.000119
1366.295752,0.003301,0.005439,0.000118
1324.872733,0.002809,0.003097,0.000108
1281.693453,0.002487,0.002761,0.00013
1404.42825,0.002741,0.00293,0.000101
1400.180411,0.002822,0.003,0.000087
1397.423513,0.002626,0.00087,0.000113
1340.988018,0.003267,0.006567,0.0001
1402.069242,0.002839,0.002837,0.000113
1343.247636,0.003554,0.006286,0.000108
1389.849881,0.003033,0.004632,0.000143
1376.978288,0.003116,0.003952,0.000133
1314.594029,0.003058,0.0037,0.000154
1349.312943,0.002766,0.001718,0.000122
1354.174172,0.002793,0.0027,0.0001
1313.765451,0.002789,0.000853,0.000162
1359.765126,0.002971,0.004531,0.000126
1310.241237,0.003115,0.005088,0.000117
1323.293703,0.002876,0.002193,0.000138
1319.334019,0.003438,0.007241,0.000147
1361.057507,0.002434,0.001495,0.000101
1362.014083,0.002297,0.001655,0.000101
1322.808535,0.002455,0.000897,0.000094
1300.158296,0.002194,0.000188,0.00008
1306.2876,0.002684,0.000576,0.000109
1277.206261,0.002187,0.00144,0.000099
1293.584849,0.002318,0.001092,0.000113
1354.631144,0.002935,0.0053,0.000096
1329.770918,0.002513,0.00143,0.000104
1247.802965,0.002992,0.005,0.000092
1266.241623,0.002216,0.000314,0.000132
1307.547821,0.002114,0.000183,0.000114
1356.162181,0.00224,0.00018,0.000114
1292.47508,0.002105,0.000152,0.000112
1296.156022,0.002979,0.00373,0.000088
1377.588203,0.002638,0.003543,0.000113
1319.144743,0.002387,0.000675,0.000097
1316.433496,0.002348,0.000262,0.000102
1278.465268,0.002641,0.006001,0.000123
1256.788783,0.002209,0.001553,0.000101
1372.021726,0.00217,0.000419,0.000089
1321.797935,0.003279,0.005726,0.000114
1383.217475,0.002875,0.001457,0.00013
1275.052302,0.002961,0.00256,0.000136
1289.018684,0.002522,0.000617,0.000119
1303.41615,0.002885,0.001931,0.000108
1247.005453,0.002695,0.000614,0.000167
1323.00512,0.003177,0.002636,0.000159
1291.387031,0.003139,0.002677,0.000134
1284.730657,0.003223,0.004068,0.000126
1219.856125,0.00295,0.002481,0.000119
1257.572013,0.002942,0.001032,0.000122
1287.494883,0.002947,0.001864,0.000118
1249.917011,0.003057,0.004612,0.000127
1345.232237,0.0029,0.005697,0.000164
1305.125955,0.003075,0.00314,0.000123
1254.464009,0.003111,0.006866,0.000119
1228.014853,0.002873,0.002413,0.000132
1300.916526,0.002633,0.001508,0.000118
1212.794728,0.003114,0.00239,0.000127
1246.910794,0.002957,0.002306,0.000149
1196.007968,0.003248,0.003456,0.000127
1257.445195,0.002973,0.002184,0.000103
1244.541934,0.002794,0.000639,0.000119
1237.085081,0.003031,0.003746,0.000089
1280.050228,0.00298,0.000637,0.000138
1205.147541,0.003065,0.004265,0.000134
1220.702535,0.003404,0.00669,0.000113
1200.117667,0.003439,0.006726,0.000114
1175.104201,0.002811,0.004831,0.000104
1164.767532,0.002945,0.004865,0.000114
1149.29686,0.002798,0.001453,0.000094
1179.475049,0.003026,0.004077,0.000102
1204.402991,0.003003,0.002959,0.000123
1229.257601,0.002919,0.001451,0.000116
1196.899748,0.00388,0.009238,0.000115
1190.967579,0.00259,0.002232,0.000097
1194.349778,0.002798,0.001847,0.000121
1232.007815,0.003151,0.008608,0.000116
1170.305018,0.001938,0.000091,0.000075
1182.503747,0.001961,0.000156,0.000092
1144.279612,0.00293,0.002972,0.00014
1189.765034,0.003193,0.003971,0.000124
1226.714638,0.00297,0.00107,0.000116
1229.969878,0.002734,0.002461,0.000112
1229.49353,0.002603,0.003602,0.000134
1156.604287,0.002671,0.002854,0.00011
1245.415978,0.002815,0.003154,0.000115
1205.665948,0.002268,0.000145,0.000134
1207.601196,0.002403,0.000141,0.00013
1179.578545,0.002473,0.00277,0.000119
1182.444772,0.00252,0.000472,0.000143
1221.894813,0.002423,0.000563,0.000153
1088.762633,0.002468,0.001696,0.000133
1110.241185,0.002173,0.000102,0.000099
1168.956401,0.001883,0.000123,0.000082
1188.244202,0.002156,0.001744,0.000102
1148.063996,0.002228,0.000615,0.000078
1193.709612,0.002417,0.000919,0.000105
1187.811838,0.002275,0.001332,0.000088
1229.549419,0.002187,0.000406,0.000102
1163.884985,0.002567,0.002162,0.000088
1168.394253,0.002104,0.000149,0.000096
1229.009557,0.002603,0.002088,0.000109
1163.94573,0.002568,0.001503,0.000102
1175.475616,0.002103,0.000146,0.000082
1213.748483,0.002297,0.001361,0.000106
1128.831938,0.002616,0.000472,0.000078
1187.898191,0.003062,0.004051,0.000093
1107.227767,0.00239,0.000138,0.000113
1126.655935,0.002268,0.000124,0.000078
1113.412678,0.003241,0.005866,0.000132
1067.82969,0.00375,0.00856,0.000115
1175.046972,0.003395,0.007057,0.000156
1094.863026,0.002667,0.000426,0.000097
1082.500964,0.002701,0.001758,0.000116
1148.844781,0.002849,0.000788,0.000141
1097.503147,0.002813,0.001305,0.000128
1150.549893,0.002676,0.001159,0.000107
1154.66933,0.00293,0.003767,0.000139
1062.028952,0.002494,0.000301,0.000115
1198.3668,0.002823,0.005062,0.000099
1077.296071,0.002683,0.000243,0.000125
1139.812123,0.002661,0.001951,0.000125
1168.721536,0.002894,0.0027,0.000082
1071.857199,0.002848,0.003786,0.000115
1087.753949,0.002702,0.001752,0.00012
1134.478028,0.003097,0.003935,0.000125
1095.493438,0.002639,0.000139,0.000114
1064.114079,0.002524,0.000154,0.000098
1110.192727,0.00274,0.002406,0.000115
1081.356768,0.002648,0.001259,0.000105
1055.455436,0.002675,0.001606,0.000123
1135.641832,0.002496,0.000166,0.000122
1171.808039,0.003291,0.006748,0.000116
1113.183126,0.002782,0.000284,0.000126
1146.796222,0.002941,0.000698,0.000122
1163.684892,0.002585,0.000147,0.0001
1238.294746,0.00274,0.00069,0.00015
1204.270338,0.002893,0.000712,0.000098
1151.770218,0.002631,0.001118,0.000115
1083.572393,0.002432,0.000126,0.000095
1064.216924,0.002686,0.001322,0.000089
1174.292768,0.002597,0.000762,0.000089
1132.581268,0.00267,0.00062,0.000082
1113.540686,0.002608,0.000386,0.000102
1128.055028,0.00284,0.000745,0.000155
1132.138701,0.002092,0.000107,0.000096
1237.784329,0.002119,0.000128,0.000103
1257.264235,0.002329,0.000783,0.000134
1210.269862,0.00263,0.000757,0.000135
1236.65299,0.002667,0.001873,0.000105
1293.274213,0.002705,0.000541,0.000101
1229.986453,0.002471,0.002122,0.000117
1190.04213,0.002407,0.000124,0.000073
1295.619336,0.002311,0.000284,0.000114
1220.087798,0.002327,0.000149,0.000111
1225.063184,0.002447,0.00025,0.000121
1267.274671,0.002502,0.00016,0.000118
1225.452539,0.002642,0.000586,0.00013
1201.593142,0.002259,0.000687,0.000099
1175.669078,0.002493,0.001413,0.000124
1173.223196,0.002459,0.000127,0.000104
1235.864266,0.002613,0.000966,0.000128
1332.86859,0.002614,0.000652,0.00015
1283.178998,0.002726,0.000497,0.000111
1196.351628,0.002522,0.001189,0.000153
1314.167606,0.002554,0.00028,0.000102
1361.013817,0.002635,0.001848,0.000115
1255.40998,0.002807,0.003686,0.000097
1253.930699,0.002641,0.0017,0.000107
1242.798091,0.002672,0.001807,0.000184
1284.176802,0.002566,0.002369,0.000094
1231.668399,0.002903,0.003682,0.000126
1257.500378,0.002415,0.000328,0.000086
1344.262882,0.002701,0.001787,0.000087
1309.936346,0.002379,0.000316,0.000106
1323.718917,0.002413,0.000134,0.000098
1314.516982,0.002832,0.001246,0.000124
1332.121984,0.002716,0.000344,0.000185
1358.689305,0.002764,0.000249,0.000137
1397.935496,0.002787,0.001966,0.000127
1402.115088,0.002806,0.000189,0.00016
1403.871303,0.002628,0.000785,0.000113
1476.605835,0.002913,0.002235,0.000124
1335.56676,0.002698,0.002145,0.000148
1387.165145,0.002808,0.002205,0.000159
1314.541934,0.002532,0.001337,0.000134
1340.849723,0.002659,0.00229,0.000113
1366.72133,0.002355,0.000285,0.000112
1485.37876,0.002453,0.000267,0.00012
1395.031415,0.002539,0.000477,0.000139
1406.703744,0.002586,0.001349,0.000121
1417.249751,0.002569,0.000209,0.000164
1481.567706,0.002687,0.000335,0.000096
1448.64161,0.002398,0.000466,0.000111
1388.178467,0.002255,0.00018,0.000094
1472.298066,0.002712,0.001134,0.00012
1452.750512,0.002311,0.000191,0.000128
1453.751687,0.002181,0.000177,0.000117
1533.783118,0.002555,0.000226,0.000088
1521.608745,0.002308,0.000178,0.000109
1485.553869,0.002066,0.000189,0.000091
1459.249816,0.002006,0.000198,0.000096
1448.277508,0.0017,0.000136,0.000082
1547.864998,0.001931,0.000132,0.000113
1502.428318,0.002101,0.000151,0.000109
1498.629465,0.00197,0.000126,0.000086
1537.058471,0.002097,0.000204,0.000093
1518.516036,0.002008,0.000128,0.000086
1532.028038,0.002004,0.00016,0.000177
1512.228079,0.001964,0.000387,0.000114
1525.362643,0.001853,0.000095,0.000061
1576.046268,0.001934,0.000148,0.000074
1546.089848,0.00221,0.000892,0.000128
1534.843609,0.001896,0.000923,0.000089
1529.904264,0.001918,0.000309,0.000071
1524.6754,0.001979,0.000148,0.000111
1543.966543,0.00205,0.000517,0.000112
1578.375259,0.001974,0.000182,0.000109
1587.309184,0.001914,0.000184,0.000087
1532.77354,0.001935,0.000256,0.00008
1563.063664,0.002042,0.000174,0.000097
1609.704268,0.00202,0.000276,0.000106
1557.165537,0.001808,0.000156,0.000115
1651.172694,0.002111,0.000172,0.000126
1627.307292,0.002041,0.00016,0.000095
1588.942424,0.00192,0.000135,0.000099
1595.807437,0.002101,0.000326,0.000107
1632.870028,0.002056,0.000179,0.000105
1649.790911,0.002372,0.000178,0.000124
1610.35532,0.002128,0.000192,0.000088
1595.989598,0.001862,0.00017,0.000083
1461.008938,0.00202,0.000146,0.000083
1531.410229,0.001873,0.000183,0.000118
1582.644791,0.001816,0.000169,0.000072
1675.786542,0.002191,0.000347,0.000128
1690.015055,0.002124,0.001236,0.000108
1770.966369,0.001901,0.000246,0.000104
1778.910563,0.001883,0.000257,0.000065
1608.139793,0.001894,0.000152,0.000073
1697.900762,0.002001,0.000228,0.000089
1728.670529,0.002193,0.000759,0.000079
1720.432964,0.001934,0.000161,0.000122
1688.5303,0.002282,0.000173,0.000128
1757.583388,0.001916,0.000177,0.000087
1731.739927,0.002194,0.000509,0.000102
1723.322537,0.002025,0.000175,0.000129
1653.97119,0.001876,0.000153,0.000102
1672.684848,0.002022,0.000127,0.000096
1677.044925,0.00217,0.000299,0.000164
1625.798079,0.002144,0.000156,0.000128
1663.387864,0.002111,0.000161,0.000096
1711.567817,0.002014,0.00034,0.000124
1700.841592,0.002391,0.001517,0.000115
1714.094432,0.002068,0.000174,0.000105
1844.746345,0.002132,0.000162,0.000123
1797.845524,0.002262,0.000774,0.000104
1840.181375,0.002034,0.000184,0.000107
1769.323985,0.002057,0.001334,0.000101
1724.499134,0.00223,0.000161,0.000086
1803.202534,0.002107,0.000128,0.000122
1691.420567,0.002123,0.001223,0.000125
1697.68753,0.002069,0.000217,0.000113
1712.934289,0.002786,0.002047,0.000134
1752.22475,0.00265,0.00043,0.000153
1783.060158,0.00261,0.000979,0.00014
1725.39489,0.002984,0.00213,0.000147
1730.478905,0.002745,0.000478,0.000189
1715.805595,0.002814,0.001322,0.000167
1719.677798,0.002774,0.000957,0.000133
1704.82963,0.003102,0.003904,0.000168
1674.31122,0.00268,0.001847,0.000113
1798.819687,0.002149,0.000597,0.000082
1864.667874,0.002696,0.001992,0.000073
1750.412671,0.00225,0.000361,0.000149
1757.728282,0.001907,0.000163,0.000214
1744.559411,0.00194,0.000159,0.000156
1842.893237,0.00201,0.00017,0.000077
1788.105625,0.002083,0.000722,0.000137
1878.611345,0.001975,0.000162,0.00015
1840.3423,0.002039,0.000149,0.000095
1805.880713,0.002,0.00017,0.000123
1755.775817,0.001988,0.000175,0.00013
1820.606952,0.001891,0.000185,0.000115
1753.058152,0.001927,0.000211,0.000113
1879.158404,0.002233,0.000225,0.000147
1813.159727,0.002487,0.001547,0.000119
1807.103028,0.001949,0.000157,0.000114
1785.125515,0.001993,0.00016,0.000127
1828.396528,0.002246,0.000597,0.000079
1822.137299,0.002133,0.000194,0.000116
1861.644849,0.002098,0.000225,0.000138
1747.278691,0.002191,0.000203,0.000151
1787.718653,0.00198,0.000143,0.000094
1798.233,0.002001,0.000181,0.000143
1766.696335,0.00204,0.000784,0.000094
1770.975788,0.0021,0.000197,0.000102
1830.021918,0.002082,0.00018,0.000126
1813.299079,0.00198,0.000139,0.000111
1816.800138,0.001927,0.000297,0.00009
1813.824613,0.00207,0.000211,0.000118
1813.980079,0.002112,0.000299,0.000132
1875.217344,0.001975,0.000219,0.000198
1828.44097,0.00212,0.000147,0.000088
1921.489346,0.002054,0.000336,0.000125
1896.129116,0.002126,0.000246,0.000121
1961.765933,0.003081,0.001659,0.00016
1817.563606,0.002606,0.000568,0.000124
1874.348737,0.002127,0.00015,0.000196
1950.264379,0.00215,0.000213,0.000097
1905.036926,0.002109,0.000195,0.000125
1854.305483,0.002431,0.000766,0.000105
1779.449402,0.00202,0.000392,0.000077
1834.90088,0.002084,0.000228,0.000087
1789.457554,0.002092,0.000194,0.000127
1723.311944,0.002158,0.000703,0.000087
1731.329106,0.001824,0.000155,0.000083
1716.589163,0.002055,0.000134,0.000074
1812.038272,0.00206,0.00079,0.000127
1747.817178,0.002146,0.001708,0.000154
1777.215364,0.002364,0.001127,0.000146
1730.33909,0.002109,0.000155,0.000098
1763.158524,0.002217,0.000174,0.000141
1716.689882,0.002094,0.0004,0.00011
1724.273374,0.001992,0.000158,0.000097
1756.27434,0.002102,0.000247,0.000121
1750.84155,0.002158,0.00067,0.000118
1801.115199,0.002313,0.000504,0.000116
1734.805075,0.00295,0.000368,0.000229
1706.316553,0.002953,0.001134,0.000204
1722.870566,0.002639,0.000955,0.000178
1755.884394,0.002806,0.001135,0.00014
1792.155176,0.002773,0.001406,0.000192
1798.319124,0.002766,0.000522,0.000196
1761.689342,0.002962,0.002553,0.000181
1775.863972,0.002931,0.001574,0.000197
1910.804283,0.003263,0.00475,0.000184
1835.774936,0.002633,0.000328,0.000172
1901.222887,0.002562,0.001481,0.000148
1885.824489,0.002939,0.001699,0.000157
1835.782177,0.003179,0.004048,0.000187
1771.830987,0.002734,0.003891,0.000153
1801.938339,0.002916,0.002979,0.000127
1854.904747,0.002791,0.002228,0.00015
1818.354481,0.002722,0.001264,0.000133
1833.408386,0.003001,0.004681,0.000095
1852.671444,0.002891,0.001582,0.000163
1842.266333,0.002757,0.000405,0.000174
1887.763377,0.003117,0.003325,0.000191
1843.523491,0.002866,0.003898,0.000125
1874.567717,0.003254,0.006744,0.000147
1940.926888,0.003001,0.00289,0.000188
1929.648496,0.002429,0.000334,0.000146
1843.243545,0.002741,0.001663,0.000166
1828.499861,0.002681,0.00034,0.000186
1866.184148,0.002714,0.002048,0.000174
1962.343039,0.002101,0.000273,0.000127
1974.594208,0.002457,0.000294,0.000125
1975.634159,0.002833,0.002217,0.000224
1913.42203,0.002818,0.000621,0.000181
1929.38272,0.002736,0.000342,0.000189
1962.22757,0.00218,0.000221,0.000117
1960.294861,0.002002,0.000177,0.000111
2011.75301,0.002212,0.000352,0.000118
2011.34601,0.00214,0.000199,0.000121
1998.594958,0.00219,0.000258,0.000146
2100.488305,0.002166,0.000261,0.000113
2068.54962,0.002168,0.00026,0.00013
1987.239918,0.002525,0.001385,0.000112
2036.37333,0.003158,0.006701,0.000135
2043.818466,0.002033,0.000221,0.000111
2010.129042,0.001933,0.000442,0.000105
2009.497437,0.002595,0.002867,0.00013
2069.603004,0.002055,0.000208,0.000097
2091.688094,0.002018,0.000684,0.00013
2111.226273,0.002488,0.003055,0.000124
2085.332287,0.002112,0.000203,0.000112
2077.010025,0.002156,0.000538,0.000142
2095.680737,0.002031,0.000329,0.000112
2015.973568,0.002145,0.000224,0.000097
2020.428425,0.002051,0.000201,0.000111
2063.958753,0.002128,0.00035,0.000126
2023.841764,0.002045,0.000176,0.000125
1963.083543,0.001969,0.000291,0.000084
2019.294531,0.001998,0.000227,0.000084
1954.197358,0.002068,0.000209,0.000127
2089.720449,0.002415,0.000297,0.000129
2009.712448,0.00206,0.00045,0.00011
1971.696551,0.002025,0.000238,0.000107
2006.934936,0.002095,0.000347,0.000111
1957.273214,0.002573,0.000747,0.000188
1961.589075,0.003031,0.007473,0.000117
1945.87821,0.00318,0.004723,0.000136
2035.043344,0.002346,0.001126,0.000136
2064.863165,0.002094,0.000231,0.000121
2123.050678,0.002373,0.005231,0.000128
2032.045149,0.002424,0.000434,0.000136
2198.403275,0.002165,0.00183,0.000099
2082.411956,0.003131,0.006535,0.000145
2004.582801,0.002508,0.004338,0.000113
2021.059108,0.003642,0.009906,0.00015
2045.90254,0.003359,0.007488,0.000141
2205.542006,0.002805,0.002622,0.000126
2148.327289,0.002341,0.000803,0.000139
2200.918872,0.002645,0.003007,0.000144
2178.19967,0.003506,0.005397,0.000219
2093.881195,0.003835,0.01227,0.000106
2136.383232,0.002197,0.000861,0.000109
2168.77998,0.002955,0.00451,0.000111
2093.017498,0.002263,0.000838,0.000125
2096.926033,0.002526,0.001655,0.000126
2059.087971,0.002353,0.002267,0.000158
2112.712932,0.002274,0.000357,0.000135
2081.627438,0.002377,0.001503,0.0001
2089.223759,0.002111,0.000245,0.00012
2049.674284,0.002214,0.000764,0.000245
2083.011174,0.002242,0.002346,0.000096
2036.753159,0.00322,0.005464,0.000138
2002.421843,0.002943,0.002506,0.000149
2104.383038,0.003093,0.003154,0.000154
2124.668156,0.002411,0.002175,0.000136
2106.689395,0.002657,0.001,0.000152
2124.24621,0.002166,0.00023,0.000111
2119.634318,0.002463,0.002665,0.000098
2113.917748,0.003628,0.009067,0.000143
2142.75652,0.003744,0.013534,0.000153
2122.601424,0.003462,0.008692,0.000141
2116.76263,0.002238,0.000399,0.000126
2092.393905,0.002446,0.001065,0.000114
2109.224304,0.003135,0.005359,0.00016
2142.34553,0.002446,0.000548,0.000113
2060.029072,0.00205,0.000221,0.000139
2167.466537,0.003212,0.003285,0.000144
2171.318536,0.002425,0.000929,0.000174
2214.70068,0.002239,0.000941,0.000096
2149.991871,0.003102,0.003325,0.00014
2178.065313,0.003188,0.006509,0.000139
2146.207728,0.002839,0.003886,0.000107
2151.566644,0.003501,0.009927,0.000128
2118.084679,0.003229,0.003953,0.000215
2117.27744,0.003414,0.008473,0.000107
2060.241966,0.003793,0.01132,0.000126
2089.034919,0.002931,0.002277,0.000169
2066.469146,0.002778,0.003174,0.000144
2148.65507,0.002272,0.000636,0.000114
2160.00584,0.002492,0.002631,0.000135
2265.288858,0.002458,0.001778,0.000108
2142.434948,0.002988,0.003967,0.000154
2128.660545,0.003614,0.012123,0.000134
2068.557165,0.00325,0.007658,0.000133
2100.620997,0.00343,0.010189,0.00013
2104.347843,0.00266,0.003435,0.000166
2164.950749,0.002673,0.00055,0.000124
2135.184174,0.002997,0.004356,0.000157
2054.032977,0.004087,0.016052,0.000236
2143.083961,0.003217,0.008703,0.00014
2068.197347,0.003818,0.010359,0.000152
2147.59515,0.002405,0.001422,0.000106
2162.78304,0.002042,0.000277,0.000101
2162.252537,0.002641,0.001782,0.000104
2042.786111,0.004035,0.015232,0.000134
2068.261825,0.003848,0.012314,0.000138
2129.585349,0.003064,0.006814,0.000115
2022.997693,0.002996,0.001386,0.000151
2080.015556,0.003316,0.00414,0.000131
2025.250711,0.003157,0.004737,0.000146
2088.503423,0.003567,0.007302,0.000162
2104.188117,0.003523,0.010676,0.000151
2038.438865,0.003427,0.011685,0.000122
2031.145666,0.003419,0.007797,0.000131
2081.793671,0.00309,0.006845,0.000149
2078.954514,0.003736,0.01122,0.000112
2030.328709,0.00343,0.007834,0.00013
2143.408134,0.002835,0.001916,0.000136
2020.858293,0.003662,0.009787,0.000134
1993.831514,0.003483,0.009368,0.00013
2061.361069,0.003772,0.01202,0.0001
2105.737639,0.004292,0.017256,0.000123
2083.997018,0.003339,0.007943,0.000135
2079.123749,0.003459,0.008777,0.000164
2110.401585,0.003575,0.008874,0.000161
2084.906522,0.003073,0.005596,0.000116
2082.099531,0.00251,0.003749,0.000109
2186.619001,0.002151,0.000476,0.000097
2100.970459,0.003959,0.016145,0.000134
2100.617189,0.004551,0.021288,0.000125
2055.455521,0.00402,0.015667,0.000138
2073.258558,0.004033,0.016939,0.000116
2082.930584,0.003263,0.006192,0.000133
2037.752553,0.00387,0.015147,0.000106
2057.702187,0.004605,0.02566,0.000159
2036.987494,0.00383,0.012524,0.000144
2053.113253,0.003764,0.013765,0.000162
2115.14718,0.003749,0.012361,0.000136
2161.659255,0.002051,0.000709,0.000098
2135.370051,0.002209,0.000327,0.000142
2034.855067,0.00226,0.000373,0.000137
2160.444835,0.002325,0.000593,0.000114
2117.618797,0.002098,0.000497,0.000098
2092.113394,0.003223,0.008302,0.000129
2111.594906,0.002585,0.004804,0.00012
2040.314017,0.002742,0.002436,0.000158
2015.654445,0.002626,0.004135,0.000225
2135.83691,0.002717,0.00462,0.000132
2049.851242,0.003024,0.005158,0.000199
2083.647254,0.002439,0.00032,0.000132
2072.737663,0.002911,0.003381,0.000143
2143.394162,0.002471,0.000703,0.000104
2111.765547,0.002255,0.000312,0.000114
2074.251921,0.002203,0.000279,0.000115
2153.401591,0.002113,0.000316,0.000109
2114.889972,0.002473,0.003291,0.000114
2139.911194,0.002982,0.00387,0.00015
2061.676066,0.002629,0.00308,0.000114
2028.7678,0.002399,0.000547,0.000177
2105.7478,0.002232,0.001009,0.000114
2203.515445,0.002569,0.002938,0.000117
2154.672754,0.002738,0.002743,0.000128
2112.644875,0.00238,0.003129,0.000111
2123.627778,0.002161,0.000862,0.000116
2060.798739,0.002209,0.001054,0.00013
2010.422414,0.002364,0.003316,0.00013
2095.282012,0.003091,0.005755,0.000103
2063.618989,0.003319,0.008798,0.000135
2043.565894,0.002429,0.001036,0.000162
2046.15373,0.002231,0.00091,0.000132
2012.680499,0.003205,0.008811,0.00011
2129.884906,0.003344,0.006018,0.000153
2033.193711,0.003554,0.010848,0.00015
2046.138631,0.003306,0.00727,0.000117
2022.388235,0.003245,0.007286,0.000129
1991.815043,0.003401,0.007696,0.000128
2017.741686,0.003208,0.003947,0.000114
1969.632964,0.003007,0.002618,0.000121
1898.624312,0.003841,0.016296,0.00013
1987.305754,0.003438,0.009326,0.000122
2007.194893,0.003174,0.004117,0.000171
1948.302956,0.003389,0.008767,0.000167
1959.369437,0.002703,0.002139,0.000118
1962.031191,0.003145,0.006533,0.000115
1948.621528,0.003468,0.008148,0.000137
2020.777373,0.004212,0.015226,0.000156
1907.203959,0.004118,0.013971,0.000163
1972.250873,0.003,0.003942,0.00013
1966.045136,0.002985,0.004705,0.000137
1935.967684,0.002432,0.002216,0.000148
1982.385598,0.002396,0.000546,0.000121
2089.852792,0.002281,0.000301,0.000121
1920.333824,0.002235,0.001663,0.000113
1949.203158,0.00234,0.001086,0.000167
2010.318136,0.002497,0.001054,0.000157
1996.963964,0.002482,0.002483,0.000094
1943.277794,0.00331,0.006841,0.000148
1948.331575,0.002462,0.001163,0.000124
1972.098974,0.003126,0.004442,0.000135
1930.250202,0.003671,0.010293,0.000113
2007.146568,0.004113,0.017503,0.000088
2012.916261,0.004921,0.02661,0.000024
1927.137325,0.004243,0.015541,0.000111
1978.100441,0.00336,0.008257,0.000072
2025.446255,0.003643,0.012115,0.000125
1956.370394,0.00287,0.003233,0.000108
1899.751158,0.003132,0.004004,0.000073
1971.520613,0.003285,0.003647,0.000125
1976.38842,0.003236,0.004988,0.000121
1978.103869,0.003753,0.012659,0.000127
1986.781093,0.003764,0.010648,0.000113
1984.153667,0.003486,0.009061,0.000104
1984.215906,0.003191,0.009293,0.000152
2019.437528,0.003563,0.009645,0.000161
2061.241646,0.003659,0.009052,0.000133
2033.930275,0.003057,0.002727,0.000132
2030.666762,0.002525,0.001046,0.000131
2104.141519,0.002223,0.000224,0.00011
2080.746588,0.002727,0.002836,0.000108
2019.88469,0.00329,0.006708,0.000158
2034.961767,0.003325,0.006385,0.000104
1965.963547,0.003254,0.003318,0.000141
2011.266101,0.003244,0.003301,0.000163
2007.465686,0.002527,0.001215,0.000175
2000.089838,0.002606,0.002428,0.000103
2070.80975,0.003477,0.007514,0.000129
1921.464219,0.003664,0.011107,0.000171
2020.977502,0.003041,0.002317,0.000142
1974.366732,0.003638,0.009668,0.000151
1960.748514,0.003334,0.004335,0.000125
1930.792736,0.003299,0.006462,0.000149
1974.634472,0.002908,0.002669,0.000227
1967.631726,0.002174,0.000224,0.000138
1937.695426,0.002876,0.003831,0.0002
1965.82581,0.002294,0.00074,0.000228
1963.970101,0.002528,0.001725,0.000139
2031.770006,0.004101,0.017223,0.000134
2028.916695,0.003024,0.005036,0.000147
1994.3826,0.002858,0.004987,0.000142
2062.837765,0.002406,0.000453,0.00014
2083.508707,0.002647,0.002712,0.000102
1999.556609,0.002719,0.002641,0.000135
1982.863787,0.002631,0.001528,0.00011
2078.181736,0.002963,0.007025,0.00014
1986.495862,0.003931,0.009831,0.000161
2057.19852,0.002564,0.003134,0.000103
2021.688063,0.00316,0.006816,0.000157
2023.646869,0.003821,0.01362,0.000197
1987.070161,0.00408,0.012513,0.000163
2024.75599,0.002632,0.002322,0.000112
1992.6163,0.00333,0.009972,0.000178
2078.461942,0.00353,0.007537,0.000165
1978.108667,0.002986,0.002619,0.000126
1957.60377,0.003402,0.005329,0.000175
1946.987761,0.002323,0.001913,0.000121
1969.200793,0.002467,0.000883,0.000113
1937.658444,0.002761,0.003243,0.000127
1974.362718,0.00367,0.007707,0.00014
1947.002364,0.003209,0.003383,0.000194
1885.195044,0.003092,0.002903,0.000149
1884.110759,0.002521,0.000843,0.000122
1925.188201,0.002821,0.00075,0.000142
1856.882907,0.00291,0.002192,0.000148
1977.266857,0.002742,0.002365,0.0001
1914.086235,0.002276,0.001745,0.000091
1818.725298,0.002802,0.004095,0.000124
1860.727407,0.002487,0.004251,0.000121
1830.987568,0.002231,0.002008,0.000133
1867.052832,0.002686,0.005412,0.000116
1829.632968,0.002552,0.001092,0.000121
1886.536589,0.002547,0.001352,0.000126
1861.670429,0.002779,0.003743,0.000117
1843.843963,0.002868,0.003449,0.000096
1785.859167,0.003059,0.003123,0.000142
1852.401808,0.003213,0.005516,0.000149
1747.577357,0.002889,0.004915,0.000161
1798.761052,0.003066,0.003376,0.000142
1876.905988,0.002937,0.004072,0.000113
1855.415018,0.003184,0.007857,0.000123
1828.818479,0.00334,0.012102,0.00012
1793.059061,0.00289,0.004013,0.000105
1797.121943,0.002719,0.00169,0.000121
1734.191327,0.003512,0.009119,0.000144
1764.623109,0.003126,0.004371,0.000134
1786.76164,0.003197,0.008482,0.000152
1723.318961,0.003002,0.004228,0.000111
1732.198876,0.003188,0.005029,0.000137
1730.498107,0.003363,0.008904,0.000132
1690.101142,0.002847,0.003134,0.000125
1778.140003,0.002432,0.000289,0.000131
1682.907945,0.002756,0.003147,0.000119
1741.538808,0.003009,0.001538,0.000126
1698.439617,0.003209,0.007754,0.00013
1760.63485,0.003397,0.007128,0.000144
1726.592305,0.003456,0.010118,0.000122
1650.670645,0.003267,0.008006,0.000106
1695.047866,0.003503,0.006702,0.00014
1642.978442,0.002556,0.003132,0.000099
1661.187765,0.003221,0.004843,0.000158
