@relation data-weka.filters.unsupervised.attribute.Remove-R4_clustered

@attribute Instance_number numeric
@attribute ﻿requests/s numeric
@attribute ProcessTime numeric
@attribute QueueTime numeric
@attribute Cluster {cluster0,cluster1,cluster2}

@data
0,1859.37455,0.002287,0.001179,cluster2
1,1918.923763,0.002362,0.00181,cluster2
2,1916.704779,0.002007,0.000214,cluster2
3,1931.60392,0.002153,0.000232,cluster2
4,1909.183042,0.002057,0.000164,cluster2
5,1858.99796,0.002068,0.000182,cluster2
6,1837.391227,0.002094,0.00017,cluster2
7,1834.820699,0.002198,0.000587,cluster2
8,1862.354132,0.00205,0.000433,cluster2
9,1911.537225,0.002517,0.004316,cluster2
10,1830.60632,0.002417,0.002181,cluster2
11,1844.941068,0.002052,0.000176,cluster2
12,1801.40739,0.002397,0.001583,cluster2
13,1806.451153,0.002538,0.000309,cluster2
14,1768.199817,0.002957,0.00253,cluster2
15,1729.24248,0.002889,0.004318,cluster2
16,1713.900059,0.00221,0.000201,cluster0
17,1739.266961,0.002092,0.000375,cluster0
18,1772.471193,0.002747,0.003746,cluster2
19,1763.22446,0.003173,0.003071,cluster2
20,1740.780427,0.002732,0.005656,cluster2
21,1706.555401,0.00245,0.003821,cluster2
22,1725.577667,0.002405,0.00131,cluster2
23,1647.480293,0.002772,0.002509,cluster2
24,1673.233466,0.002844,0.002643,cluster2
25,1656.099562,0.003395,0.007744,cluster2
26,1709.175727,0.003156,0.003658,cluster2
27,1616.509411,0.002769,0.002294,cluster2
28,1616.627216,0.002779,0.001901,cluster2
29,1607.690993,0.002311,0.002285,cluster0
30,1596.822933,0.002628,0.001634,cluster2
31,1639.883322,0.00335,0.004207,cluster2
32,1581.775049,0.003533,0.004363,cluster2
33,1565.620343,0.003109,0.003587,cluster2
34,1564.324356,0.002512,0.00174,cluster0
35,1531.975239,0.003439,0.011411,cluster2
36,1550.228515,0.00234,0.000785,cluster0
37,1637.606892,0.002807,0.002256,cluster2
38,1459.172869,0.002827,0.004658,cluster0
39,1515.104964,0.00263,0.001649,cluster0
40,1440.149973,0.002981,0.003231,cluster0
41,1535.892811,0.003083,0.001814,cluster2
42,1445.741473,0.002934,0.003685,cluster0
43,1461.296506,0.003116,0.003988,cluster0
44,1516.89157,0.003277,0.007055,cluster0
45,1503.620857,0.003056,0.004603,cluster0
46,1504.198228,0.003005,0.001349,cluster0
47,1468.612482,0.00267,0.001952,cluster0
48,1507.401323,0.002073,0.000168,cluster0
49,1436.636692,0.002033,0.000141,cluster0
50,1457.905483,0.002032,0.000143,cluster0
51,1449.766381,0.002562,0.001422,cluster0
52,1428.037431,0.00215,0.000156,cluster0
53,1399.341425,0.002146,0.000161,cluster0
54,1403.791375,0.002139,0.001335,cluster0
55,1327.219608,0.002805,0.002673,cluster0
56,1397.510443,0.002044,0.000179,cluster0
57,1352.368063,0.002033,0.000117,cluster0
58,1353.376321,0.002163,0.000128,cluster0
59,1332.243939,0.002661,0.000714,cluster0
60,1399.944148,0.002039,0.000128,cluster0
61,1333.598867,0.002029,0.000123,cluster0
62,1377.769966,0.001901,0.000116,cluster0
63,1383.650261,0.002426,0.000411,cluster0
64,1381.043559,0.002585,0.000345,cluster0
65,1442.985976,0.002517,0.002164,cluster0
66,1363.943641,0.002405,0.001168,cluster0
67,1372.687243,0.002394,0.002241,cluster0
68,1410.97832,0.00219,0.000362,cluster0
69,1410.358839,0.001956,0.000103,cluster0
70,1404.626649,0.001953,0.00011,cluster0
71,1412.196094,0.001911,0.000101,cluster0
72,1442.143949,0.002124,0.000209,cluster0
73,1479.330068,0.002485,0.001682,cluster0
74,1375.544617,0.00213,0.000193,cluster0
75,1442.307668,0.002261,0.000147,cluster0
76,1423.158004,0.002402,0.001012,cluster0
77,1337.808673,0.002364,0.002351,cluster0
78,1386.595426,0.002321,0.002283,cluster0
79,1402.715793,0.00212,0.001055,cluster0
80,1376.927732,0.002004,0.00011,cluster0
81,1381.773124,0.002159,0.000115,cluster0
82,1416.402952,0.002093,0.000329,cluster0
83,1365.1268,0.002139,0.000359,cluster0
84,1407.059612,0.002015,0.000132,cluster0
85,1326.238627,0.002039,0.000132,cluster0
86,1338.157963,0.002211,0.00039,cluster0
87,1322.092094,0.001967,0.000097,cluster0
88,1337.784546,0.002078,0.000199,cluster0
89,1238.922013,0.0022,0.000121,cluster0
90,1465.93664,0.001977,0.000122,cluster0
91,1357.883473,0.002673,0.002915,cluster0
92,1352.417212,0.002121,0.000237,cluster0
93,1374.173955,0.002246,0.000151,cluster0
94,1276.415002,0.002144,0.000311,cluster0
95,1287.52712,0.002439,0.004561,cluster0
96,1357.164164,0.002164,0.000146,cluster0
97,1285.461017,0.002084,0.000128,cluster0
98,1365.829202,0.002544,0.000595,cluster0
99,1321.59501,0.002087,0.00018,cluster0
100,1284.067199,0.002537,0.005141,cluster0
101,1247.51822,0.002179,0.000109,cluster0
102,1286.646209,0.001955,0.000157,cluster0
103,1351.084871,0.001851,0.000153,cluster0
104,1305.86025,0.00209,0.000124,cluster0
105,1355.105903,0.00228,0.000187,cluster0
106,1328.248243,0.001829,0.000108,cluster0
107,1286.894793,0.002193,0.000754,cluster0
108,1386.372685,0.002156,0.000141,cluster0
109,1301.958615,0.0021,0.000147,cluster0
110,1315.096884,0.002061,0.000138,cluster0
111,1360.701646,0.002045,0.000147,cluster0
112,1342.896976,0.002145,0.000125,cluster0
113,1362.9122,0.002226,0.000225,cluster0
114,1335.839144,0.002346,0.000124,cluster0
115,1351.445381,0.002484,0.003953,cluster0
116,1358.569288,0.00241,0.000796,cluster0
117,1391.417634,0.001912,0.000121,cluster0
118,1240.766267,0.002037,0.000106,cluster0
119,1259.587353,0.002356,0.000872,cluster0
120,1315.765881,0.00247,0.000626,cluster0
121,1362.517612,0.001904,0.00011,cluster0
122,1271.49921,0.002049,0.000175,cluster0
123,1258.040777,0.002581,0.006226,cluster0
124,1325.240491,0.002578,0.003877,cluster0
125,1223.636108,0.001955,0.000127,cluster0
126,1306.695509,0.002126,0.000515,cluster0
127,1256.239847,0.002314,0.001191,cluster0
128,1288.552297,0.002137,0.000103,cluster0
129,1252.391848,0.002129,0.000324,cluster0
130,1255.12328,0.0022,0.000971,cluster0
131,1220.448151,0.002156,0.000113,cluster0
132,1193.314107,0.002207,0.000181,cluster0
133,1214.502788,0.002039,0.000125,cluster0
134,1167.399133,0.003321,0.003763,cluster0
135,1200.985404,0.002635,0.001246,cluster0
136,1254.813272,0.002589,0.001636,cluster0
137,1154.477381,0.002089,0.000111,cluster0
138,1257.929331,0.002365,0.002146,cluster0
139,1205.428649,0.002197,0.000362,cluster0
140,1266.110779,0.002124,0.000126,cluster0
141,1179.900252,0.001986,0.000107,cluster0
142,1185.89479,0.002612,0.000886,cluster0
143,1137.285198,0.002521,0.000348,cluster0
144,1143.640233,0.002682,0.001944,cluster0
145,1123.20622,0.002825,0.001463,cluster0
146,1204.689283,0.002736,0.000953,cluster0
147,1155.708895,0.002097,0.000088,cluster0
148,1170.058513,0.002137,0.000119,cluster0
149,1108.535603,0.002118,0.00009,cluster0
150,1109.859212,0.002203,0.000096,cluster0
151,1173.382635,0.002153,0.000295,cluster0
152,1172.281957,0.003171,0.00308,cluster0
153,1139.980421,0.002762,0.000391,cluster0
154,1137.874228,0.002243,0.000128,cluster0
155,1177.284687,0.002213,0.000102,cluster0
156,1133.945521,0.00215,0.000372,cluster0
157,1129.349451,0.001918,0.000154,cluster0
158,1179.95835,0.002377,0.000373,cluster0
159,1109.549072,0.002596,0.002323,cluster0
160,1187.829252,0.002323,0.000638,cluster0
161,1197.542468,0.002177,0.00021,cluster0
162,1168.050092,0.002126,0.000678,cluster0
163,1197.369943,0.002131,0.00039,cluster0
164,1151.178567,0.002364,0.000486,cluster0
165,1123.977063,0.002938,0.000754,cluster0
166,1116.742405,0.003224,0.00654,cluster0
167,1225.278908,0.002508,0.000666,cluster0
168,1135.750963,0.002021,0.000143,cluster0
169,1151.514078,0.00214,0.000116,cluster0
170,1130.442842,0.002067,0.001023,cluster0
171,1132.099572,0.001945,0.000112,cluster0
172,1161.684907,0.001949,0.000103,cluster0
173,1097.816961,0.002296,0.000244,cluster0
174,1098.15427,0.002647,0.001021,cluster0
175,1088.010049,0.003075,0.00606,cluster0
176,1062.824999,0.002489,0.00043,cluster0
177,1064.387463,0.002681,0.002023,cluster0
178,1103.635625,0.002024,0.000119,cluster0
179,1045.087136,0.00199,0.000104,cluster0
180,1067.443353,0.002823,0.003467,cluster0
181,1126.343556,0.002407,0.001462,cluster0
182,1132.283897,0.002216,0.000153,cluster0
183,1048.558671,0.002764,0.003613,cluster0
184,1075.549122,0.002445,0.002537,cluster0
185,1067.780432,0.00198,0.000128,cluster0
186,1111.7091,0.002268,0.000133,cluster0
187,1094.858144,0.002033,0.000138,cluster0
188,1052.072922,0.002369,0.000152,cluster0
189,1072.415548,0.002394,0.001857,cluster0
190,1124.725047,0.002071,0.000604,cluster0
191,1082.17824,0.002392,0.000247,cluster0
192,1188.204021,0.002152,0.000833,cluster0
193,1116.821793,0.001987,0.000133,cluster0
194,1089.734239,0.002112,0.000645,cluster0
195,1210.651479,0.002114,0.000554,cluster0
196,1140.910196,0.002201,0.000154,cluster0
197,1235.700294,0.001951,0.000168,cluster0
198,1186.044365,0.002067,0.000172,cluster0
199,1227.29958,0.001917,0.000114,cluster0
200,1132.502421,0.001932,0.000116,cluster0
201,1116.295853,0.001955,0.000144,cluster0
202,1136.658271,0.002438,0.001135,cluster0
203,1189.660924,0.00244,0.000246,cluster0
204,1229.444453,0.002162,0.000132,cluster0
205,1127.999334,0.002153,0.000144,cluster0
206,1166.062858,0.002049,0.000126,cluster0
207,1042.973127,0.00219,0.000124,cluster0
208,1143.755785,0.001946,0.000312,cluster0
209,1161.157484,0.002049,0.000138,cluster0
210,1210.071199,0.00212,0.000128,cluster0
211,1180.198843,0.00207,0.000121,cluster0
212,1131.789392,0.002059,0.000123,cluster0
213,1185.840563,0.00185,0.000166,cluster0
214,1198.650162,0.00218,0.000115,cluster0
215,1207.298587,0.002085,0.000112,cluster0
216,1228.464826,0.002118,0.000128,cluster0
217,1244.917806,0.002032,0.000135,cluster0
218,1213.219831,0.002119,0.000129,cluster0
219,1242.378486,0.002097,0.00012,cluster0
220,1149.914873,0.002011,0.000123,cluster0
221,1232.559873,0.002097,0.000129,cluster0
222,1218.271415,0.002024,0.000107,cluster0
223,1267.685675,0.002035,0.00012,cluster0
224,1299.552613,0.002001,0.000128,cluster0
225,1241.830825,0.001949,0.000221,cluster0
226,1284.483497,0.001965,0.000125,cluster0
227,1250.736107,0.00192,0.000125,cluster0
228,1192.027897,0.002084,0.000115,cluster0
229,1173.396657,0.002206,0.000449,cluster0
230,1270.673392,0.001988,0.000128,cluster0
231,1191.570335,0.001947,0.000111,cluster0
232,1237.768085,0.002234,0.000268,cluster0
233,1220.45368,0.002115,0.00011,cluster0
234,1226.115948,0.002004,0.000133,cluster0
235,1272.241031,0.002148,0.000147,cluster0
236,1252.533837,0.002164,0.00012,cluster0
237,1327.145014,0.001885,0.000308,cluster0
238,1249.946019,0.002073,0.000124,cluster0
239,1259.865027,0.001965,0.000236,cluster0
240,1268.761395,0.002384,0.000385,cluster0
241,1328.397246,0.002814,0.000408,cluster0
242,1379.991488,0.002302,0.000161,cluster0
243,1356.366965,0.002326,0.000197,cluster0
244,1359.594289,0.002285,0.000174,cluster0
245,1379.975491,0.002309,0.000154,cluster0
246,1416.086926,0.002883,0.000973,cluster0
247,1377.136989,0.002762,0.003964,cluster0
248,1429.073332,0.002516,0.001391,cluster0
249,1301.102306,0.002575,0.000243,cluster0
250,1374.168049,0.002518,0.002392,cluster0
251,1333.209303,0.002162,0.000141,cluster0
252,1393.808837,0.002193,0.000146,cluster0
253,1418.209555,0.002069,0.000127,cluster0
254,1424.681002,0.002311,0.001776,cluster0
255,1432.383319,0.001967,0.000121,cluster0
256,1462.443767,0.002148,0.000125,cluster0
257,1473.043617,0.002081,0.000134,cluster0
258,1476.501572,0.002265,0.000286,cluster0
259,1492.659656,0.001988,0.000148,cluster0
260,1486.941588,0.002141,0.000155,cluster0
261,1494.183504,0.002181,0.00019,cluster0
262,1581.421214,0.00236,0.000219,cluster0
263,1446.198272,0.002168,0.000151,cluster0
264,1476.16206,0.002134,0.00016,cluster0
265,1540.373975,0.002074,0.000186,cluster0
266,1492.674833,0.002308,0.000448,cluster0
267,1534.072338,0.002154,0.000152,cluster0
268,1504.14541,0.002148,0.000417,cluster0
269,1462.328792,0.001895,0.000127,cluster0
270,1436.240398,0.002466,0.000834,cluster0
271,1520.988265,0.002143,0.000302,cluster0
272,1653.133528,0.002576,0.00377,cluster2
273,1620.612041,0.002308,0.000389,cluster0
274,1526.913621,0.002013,0.000149,cluster0
275,1554.752897,0.002359,0.000252,cluster0
276,1550.666678,0.002415,0.000172,cluster0
277,1558.433925,0.002118,0.000369,cluster0
278,1596.568932,0.002159,0.000254,cluster0
279,1685.59815,0.002115,0.000189,cluster0
280,1635.071649,0.002232,0.000182,cluster0
281,1614.628336,0.002609,0.001694,cluster2
282,1622.454493,0.003073,0.001993,cluster2
283,1604.640125,0.002812,0.000726,cluster2
284,1583.92832,0.00224,0.000471,cluster0
285,1580.850698,0.002421,0.000211,cluster0
286,1828.285379,0.002079,0.000138,cluster2
287,1696.110168,0.001996,0.000165,cluster0
288,1682.024242,0.002041,0.000188,cluster0
289,1619.279803,0.002059,0.000213,cluster0
290,1662.414355,0.00227,0.000202,cluster0
291,1638.374619,0.002225,0.000161,cluster0
292,1689.410266,0.002604,0.000286,cluster2
293,1684.590678,0.002555,0.001369,cluster2
294,1616.760665,0.002159,0.000183,cluster0
295,1799.461495,0.002452,0.000326,cluster2
296,1665.142237,0.002419,0.000457,cluster0
297,1624.929096,0.002987,0.000698,cluster2
298,1730.908034,0.003087,0.002143,cluster2
299,1713.296671,0.002779,0.00096,cluster2
300,1893.664124,0.003055,0.002545,cluster2
301,1899.142659,0.002428,0.000871,cluster2
302,1883.304192,0.002882,0.003711,cluster2
303,1807.771384,0.002272,0.000198,cluster2
304,1721.32072,0.002063,0.000156,cluster0
305,1792.756692,0.002125,0.000194,cluster2
306,1812.558562,0.002187,0.00024,cluster2
307,1766.913213,0.002293,0.000311,cluster2
308,1822.923528,0.002071,0.000216,cluster2
309,1813.88158,0.002418,0.000554,cluster2
310,1833.636511,0.003171,0.002508,cluster2
311,1877.670306,0.002427,0.000258,cluster2
312,1896.728041,0.002407,0.000276,cluster2
313,1884.782342,0.003291,0.001602,cluster2
314,1866.945999,0.003116,0.001283,cluster2
315,1836.061801,0.003496,0.006559,cluster2
316,1873.068484,0.00296,0.000589,cluster2
317,1843.308232,0.002808,0.000783,cluster2
318,1902.112913,0.003075,0.003317,cluster2
319,1936.551646,0.003321,0.003474,cluster2
320,1904.239345,0.002883,0.001728,cluster2
321,1906.06167,0.002435,0.00032,cluster2
322,1920.476927,0.002321,0.000691,cluster2
323,1884.982311,0.002531,0.000634,cluster2
324,1955.865341,0.002275,0.000207,cluster2
325,1878.3648,0.003233,0.002342,cluster2
326,1964.992913,0.00296,0.002763,cluster2
327,1942.079085,0.002398,0.000244,cluster2
328,1884.150455,0.002701,0.002402,cluster2
329,1881.655649,0.002818,0.002091,cluster2
330,1886.82358,0.00261,0.000414,cluster2
331,1940.457209,0.002718,0.001393,cluster2
332,1990.985549,0.002606,0.000959,cluster2
333,2000.615089,0.002802,0.001884,cluster2
334,2075.101871,0.002542,0.001069,cluster2
335,2041.07201,0.002721,0.002159,cluster2
336,1918.532205,0.002728,0.000649,cluster2
337,1903.389595,0.003021,0.002437,cluster2
338,1964.047852,0.002778,0.001436,cluster2
339,1936.50349,0.003008,0.002229,cluster2
340,1966.47739,0.003075,0.002148,cluster2
341,2039.825836,0.003175,0.002448,cluster2
342,1977.792847,0.002993,0.001256,cluster2
343,1970.157028,0.003068,0.001395,cluster2
344,1986.549459,0.00282,0.000797,cluster2
345,1859.300294,0.002911,0.006333,cluster2
346,1906.966813,0.002292,0.000175,cluster2
347,1895.127949,0.002373,0.000781,cluster2
348,1871.546892,0.002247,0.00017,cluster2
349,1871.155912,0.002099,0.000295,cluster2
350,1904.380296,0.002478,0.000547,cluster2
351,1846.234461,0.0032,0.007612,cluster2
352,1961.596428,0.002631,0.000486,cluster2
353,1856.638232,0.002663,0.000617,cluster2
354,1893.819864,0.002171,0.000239,cluster2
355,1851.283293,0.002181,0.000206,cluster2
356,1863.371134,0.002293,0.00018,cluster2
357,1890.347485,0.002089,0.000404,cluster2
358,1870.300813,0.002136,0.000142,cluster2
359,1836.836763,0.002152,0.000382,cluster2
360,1838.469889,0.002242,0.000265,cluster2
361,1960.942523,0.002159,0.000194,cluster2
362,1961.875527,0.002935,0.00531,cluster2
363,1976.639489,0.002142,0.000242,cluster2
364,1904.84171,0.002542,0.000593,cluster2
365,2009.153712,0.003239,0.002208,cluster2
366,1955.737894,0.002857,0.000539,cluster2
367,1957.857122,0.003279,0.005324,cluster2
368,1974.025356,0.002815,0.00115,cluster2
369,1907.50401,0.002946,0.001271,cluster2
370,1934.582917,0.002847,0.001635,cluster2
371,1939.663343,0.002798,0.000592,cluster2
372,1921.558075,0.002854,0.000929,cluster2
373,1926.884248,0.002998,0.001,cluster2
374,1963.115585,0.003377,0.003804,cluster2
375,2031.043312,0.002975,0.002327,cluster2
376,1997.959884,0.002824,0.000728,cluster2
377,1976.8376,0.002923,0.0021,cluster2
378,1967.434818,0.003031,0.000567,cluster2
379,2006.951216,0.002875,0.001411,cluster2
380,2002.876437,0.003207,0.001651,cluster2
381,1895.67954,0.002994,0.000623,cluster2
382,1972.201393,0.003055,0.002389,cluster2
383,1960.968751,0.002772,0.000422,cluster2
384,1933.351756,0.002726,0.000398,cluster2
385,1936.995608,0.002855,0.000813,cluster2
386,1943.727232,0.002817,0.001147,cluster2
387,1949.100939,0.002988,0.000938,cluster2
388,1892.999814,0.003105,0.002976,cluster2
389,1885.413505,0.002775,0.000339,cluster2
390,2010.636118,0.003096,0.002592,cluster2
391,2023.389209,0.00302,0.001637,cluster2
392,2086.059488,0.003076,0.002039,cluster2
393,2057.290866,0.003118,0.000966,cluster2
394,2065.934702,0.003155,0.002145,cluster2
395,2046.926825,0.002402,0.00037,cluster2
396,2052.531094,0.002423,0.000276,cluster2
397,2037.139226,0.002993,0.001732,cluster2
398,2005.727107,0.003231,0.001443,cluster2
399,1979.686523,0.003182,0.001016,cluster2
400,1993.085467,0.002854,0.001524,cluster2
401,2164.088569,0.003007,0.002031,cluster2
402,2123.839311,0.003221,0.001955,cluster2
403,2137.739998,0.003135,0.00259,cluster2
404,1990.393774,0.002929,0.000419,cluster2
405,1979.794126,0.003195,0.007625,cluster2
406,2034.065908,0.00272,0.003273,cluster2
407,2047.613987,0.002246,0.00017,cluster2
408,2028.67546,0.002441,0.000604,cluster2
409,2036.356565,0.002608,0.002073,cluster2
410,2108.326171,0.002227,0.000148,cluster2
411,2043.366125,0.002281,0.000295,cluster2
412,2005.208218,0.002364,0.000703,cluster2
413,2048.703079,0.002308,0.000407,cluster2
414,2014.729868,0.002779,0.004059,cluster2
415,2077.600429,0.002764,0.002046,cluster2
416,2074.631719,0.002414,0.000502,cluster2
417,2148.007206,0.002646,0.001002,cluster2
418,2124.919123,0.003514,0.006834,cluster1
419,2043.432174,0.003024,0.003488,cluster2
420,2060.144445,0.003453,0.002196,cluster2
421,2069.125025,0.003316,0.003109,cluster2
422,2019.557598,0.003128,0.002173,cluster2
423,2151.767457,0.003385,0.006415,cluster1
424,2109.195528,0.002897,0.001091,cluster2
425,2090.774183,0.003144,0.003407,cluster2
426,2101.58582,0.003001,0.001824,cluster2
427,2114.894048,0.003009,0.001873,cluster2
428,2168.22603,0.003087,0.003756,cluster2
429,2206.114084,0.002884,0.000669,cluster2
430,2140.284611,0.003288,0.007758,cluster1
431,2191.836998,0.003386,0.006708,cluster1
432,2124.287259,0.003364,0.008165,cluster1
433,2199.974698,0.003169,0.004015,cluster2
434,2182.509781,0.003158,0.003443,cluster2
435,2118.234533,0.002957,0.002307,cluster2
436,2131.054908,0.003176,0.007265,cluster2
437,2112.897297,0.003212,0.005601,cluster2
438,2005.93647,0.003283,0.008166,cluster2
439,2133.865287,0.003092,0.004383,cluster2
440,2156.403925,0.003129,0.003336,cluster2
441,2196.797354,0.003399,0.00465,cluster1
442,2217.389266,0.003136,0.003178,cluster2
443,2143.654775,0.003472,0.006986,cluster1
444,2136.955834,0.003037,0.001509,cluster2
445,2122.279229,0.003108,0.001867,cluster2
446,2227.751354,0.003216,0.005963,cluster1
447,2253.091937,0.003444,0.009728,cluster1
448,2219.4316,0.00354,0.007961,cluster1
449,2201.137805,0.003609,0.008319,cluster1
450,2148.064907,0.00373,0.012524,cluster1
451,2220.856807,0.003624,0.010011,cluster1
452,2181.890873,0.003527,0.011107,cluster1
453,2162.201746,0.003356,0.00616,cluster1
454,2275.192054,0.002706,0.001807,cluster2
455,2209.927968,0.003615,0.010411,cluster1
456,2187.985882,0.003322,0.003851,cluster2
457,2210.846907,0.004204,0.020949,cluster1
458,2324.124021,0.003918,0.013546,cluster1
459,2322.090785,0.003141,0.005113,cluster1
460,2288.504984,0.003265,0.008465,cluster1
461,2255.932312,0.003285,0.007593,cluster1
462,2274.143741,0.00334,0.007572,cluster1
463,2355.243791,0.003294,0.004957,cluster1
464,2325.870862,0.003491,0.007797,cluster1
465,2248.188263,0.003601,0.011765,cluster1
466,2296.26377,0.004367,0.018681,cluster1
467,2229.455795,0.003712,0.009091,cluster1
468,2297.16859,0.003787,0.011147,cluster1
469,2271.053314,0.003698,0.014247,cluster1
470,2242.217196,0.00423,0.017224,cluster1
471,2161.413438,0.004581,0.027297,cluster1
472,2233.539089,0.004134,0.018054,cluster1
473,2263.252371,0.003704,0.009224,cluster1
474,2154.83941,0.003473,0.007223,cluster1
475,2188.505223,0.003268,0.004768,cluster2
476,2212.599771,0.003465,0.00627,cluster1
477,2277.093399,0.003854,0.014066,cluster1
478,2256.51604,0.003282,0.00436,cluster1
479,2240.950651,0.003277,0.002847,cluster2
480,2234.369436,0.00436,0.024837,cluster1
481,2231.506297,0.003691,0.011464,cluster1
482,2294.640105,0.003588,0.01069,cluster1
483,2386.06861,0.003654,0.010183,cluster1
484,2278.161979,0.003281,0.006533,cluster1
485,2279.534758,0.003553,0.008436,cluster1
486,2175.357983,0.004168,0.022385,cluster1
487,2337.98532,0.003625,0.01181,cluster1
488,2400.726468,0.003708,0.012214,cluster1
489,2298.528308,0.003562,0.00854,cluster1
490,2314.676277,0.003742,0.013718,cluster1
491,2353.066213,0.003781,0.013873,cluster1
492,2315.250202,0.003876,0.012983,cluster1
493,2305.652957,0.003734,0.009493,cluster1
494,2427.184158,0.003696,0.008456,cluster1
495,2307.374721,0.003863,0.01429,cluster1
496,2412.779673,0.003668,0.011698,cluster1
497,2271.980654,0.004059,0.017408,cluster1
498,2310.98161,0.0039,0.013733,cluster1
499,2315.408339,0.003548,0.009277,cluster1
500,2256.289834,0.004572,0.025058,cluster1
501,2350.674312,0.003709,0.011765,cluster1
502,2309.527668,0.003791,0.013469,cluster1
503,2353.122485,0.004051,0.012732,cluster1
504,2248.06248,0.003606,0.012063,cluster1
505,2307.691535,0.003751,0.011714,cluster1
506,2313.004292,0.003768,0.011599,cluster1
507,2298.06554,0.003819,0.012411,cluster1
508,2389.568803,0.00415,0.015192,cluster1
509,2298.211001,0.003842,0.015302,cluster1
510,2171.761884,0.004539,0.026117,cluster1
511,2264.937271,0.004742,0.027113,cluster1
512,2304.549723,0.003847,0.015745,cluster1
513,2282.853605,0.003732,0.010963,cluster1
514,2333.824727,0.005044,0.030151,cluster1
515,2313.683619,0.004292,0.021419,cluster1
516,2320.075425,0.00467,0.028825,cluster1
517,2384.648916,0.003994,0.013872,cluster1
518,2417.264336,0.004095,0.015476,cluster1
519,2371.05952,0.003904,0.012514,cluster1
520,2327.69321,0.00392,0.015643,cluster1
521,2300.855035,0.003491,0.010394,cluster1
522,2481.36866,0.003849,0.012337,cluster1
523,2450.242957,0.004058,0.015158,cluster1
524,2332.998658,0.004109,0.01682,cluster1
525,2384.870489,0.004044,0.016434,cluster1
526,2454.941356,0.002782,0.004652,cluster2
527,2385.062032,0.002161,0.000224,cluster2
528,2476.222434,0.002209,0.000353,cluster2
529,2546.234598,0.002461,0.004753,cluster2
530,2495.671789,0.002866,0.009095,cluster1
531,2401.706961,0.003844,0.017476,cluster1
532,2394.798499,0.003549,0.008489,cluster1
533,2329.562267,0.004029,0.019269,cluster1
534,2331.286201,0.004217,0.020349,cluster1
535,2358.850283,0.004101,0.01455,cluster1
536,2285.238793,0.004612,0.024817,cluster1
537,2300.565708,0.004572,0.022475,cluster1
538,2315.876288,0.004396,0.020951,cluster1
539,2268.268431,0.004292,0.028273,cluster1
540,2473.773425,0.002227,0.000719,cluster2
541,2381.077774,0.004417,0.023402,cluster1
542,2366.684262,0.004047,0.018371,cluster1
543,2371.606867,0.004084,0.018358,cluster1
544,2419.780939,0.00364,0.006861,cluster1
545,2394.789863,0.004602,0.028848,cluster1
546,2368.396976,0.003577,0.007219,cluster1
547,2329.838858,0.004481,0.02448,cluster1
548,2362.42923,0.004291,0.022596,cluster1
549,2259.522009,0.005672,0.049505,cluster1
550,2243.738244,0.005033,0.031537,cluster1
551,2258.210944,0.005061,0.033185,cluster1
552,2573.556655,0.003349,0.013044,cluster1
553,2501.212866,0.003906,0.019402,cluster1
554,2383.917347,0.00482,0.033118,cluster1
555,2363.626584,0.004349,0.021794,cluster1
556,2275.497447,0.004743,0.031273,cluster1
557,2424.198996,0.004472,0.026422,cluster1
558,2455.923083,0.004185,0.020355,cluster1
559,2326.697397,0.004863,0.031169,cluster1
560,2302.743108,0.005522,0.045031,cluster1
561,2372.75425,0.004039,0.018218,cluster1
562,2404.830764,0.004214,0.017047,cluster1
563,2364.60346,0.004324,0.02365,cluster1
564,2397.197784,0.003811,0.012644,cluster1
565,2514.178425,0.003618,0.013987,cluster1
566,2398.794406,0.004193,0.019964,cluster1
567,2402.889425,0.004574,0.023567,cluster1
568,2450.131053,0.004479,0.022391,cluster1
569,2420.599185,0.004145,0.018508,cluster1
570,2296.037185,0.00477,0.031968,cluster1
571,2376.561536,0.004618,0.026589,cluster1
572,2376.524358,0.003281,0.014797,cluster1
573,2364.105077,0.003772,0.018822,cluster1
574,2427.461055,0.0031,0.007951,cluster1
575,2371.820897,0.004336,0.01994,cluster1
576,2386.933129,0.004283,0.023394,cluster1
577,2376.177847,0.004476,0.027821,cluster1
578,2332.196774,0.004372,0.023349,cluster1
579,2384.765429,0.003962,0.013919,cluster1
580,2322.802611,0.004434,0.028945,cluster1
581,2452.495066,0.004587,0.02667,cluster1
582,2434.140459,0.004503,0.025558,cluster1
583,2388.721743,0.004383,0.02574,cluster1
584,2325.594261,0.00503,0.03829,cluster1
585,2427.653722,0.004109,0.017616,cluster1
586,2492.322013,0.003505,0.009123,cluster1
587,2352.903103,0.004723,0.031148,cluster1
588,2412.565947,0.004607,0.024786,cluster1
589,2301.695786,0.004682,0.033193,cluster1
590,2545.786617,0.00221,0.000612,cluster2
591,2476.204967,0.00382,0.013693,cluster1
592,2345.564966,0.004505,0.025961,cluster1
593,2432.704019,0.004224,0.021632,cluster1
594,2367.89933,0.004087,0.020047,cluster1
595,2402.176556,0.003927,0.017819,cluster1
596,2370.314514,0.004133,0.019206,cluster1
597,2366.949511,0.00481,0.031042,cluster1
598,2287.443335,0.004584,0.026693,cluster1
599,2513.772809,0.002324,0.002494,cluster2
600,2404.508695,0.00322,0.008831,cluster1
601,2296.632264,0.004551,0.0217,cluster1
602,2225.112944,0.005772,0.05057,cluster1
603,2355.209423,0.005004,0.034243,cluster1
604,2426.772191,0.004508,0.026707,cluster1
605,2388.351333,0.003866,0.014403,cluster1
606,2461.038593,0.003816,0.011544,cluster1
607,2422.050561,0.004226,0.020408,cluster1
608,2333.518028,0.004984,0.033404,cluster1
609,2333.781232,0.004489,0.025802,cluster1
610,2325.002808,0.004941,0.036128,cluster1
611,2428.677889,0.004158,0.017621,cluster1
612,2451.699569,0.004965,0.036862,cluster1
613,2373.691344,0.003935,0.020347,cluster1
614,2544.166335,0.003546,0.014392,cluster1
615,2491.273006,0.004904,0.035605,cluster1
616,2393.363376,0.00463,0.028913,cluster1
617,2340.468035,0.004452,0.024795,cluster1
618,2449.278941,0.004215,0.023169,cluster1
619,2532.808429,0.004418,0.02475,cluster1
620,2379.549786,0.003736,0.014846,cluster1
621,2358.107729,0.005446,0.045776,cluster1
622,2419.426516,0.004643,0.032808,cluster1
623,2555.032925,0.004681,0.034469,cluster1
624,2365.04684,0.004466,0.023915,cluster1
625,2433.353428,0.004404,0.024998,cluster1
626,2385.62239,0.004557,0.028985,cluster1
627,2341.884544,0.004896,0.034147,cluster1
628,2476.863554,0.004522,0.027728,cluster1
629,2418.442696,0.004082,0.016719,cluster1
630,2422.005505,0.005081,0.036078,cluster1
631,2496.003579,0.004376,0.020705,cluster1
632,2439.464984,0.004703,0.027567,cluster1
633,2395.657521,0.004867,0.035727,cluster1
634,2467.082017,0.004312,0.025761,cluster1
635,2487.138841,0.004304,0.02551,cluster1
636,2424.937582,0.005688,0.050686,cluster1
637,2206.044757,0.005964,0.058023,cluster1
638,2510.33706,0.003711,0.022312,cluster1
639,2515.565401,0.004164,0.021536,cluster1
640,2500.107301,0.004372,0.024554,cluster1
641,2558.653426,0.004717,0.032005,cluster1
642,2551.544707,0.004868,0.031293,cluster1
643,2522.781922,0.004587,0.025065,cluster1
644,2503.147013,0.004378,0.029395,cluster1
645,2586.521124,0.004275,0.027004,cluster1
646,2567.183755,0.004649,0.029791,cluster1
647,2466.70641,0.005083,0.03743,cluster1
648,2574.920506,0.003437,0.016926,cluster1
649,2568.75164,0.004744,0.03105,cluster1
650,2445.426423,0.005055,0.04184,cluster1
651,2417.258661,0.005095,0.039273,cluster1
652,2575.916929,0.005323,0.04601,cluster1
653,2247.689483,0.005663,0.054245,cluster1
654,2409.859605,0.005099,0.040989,cluster1
655,2557.740384,0.004331,0.022005,cluster1
656,2514.431865,0.004489,0.026878,cluster1
657,2549.031893,0.004527,0.029825,cluster1
658,2603.378098,0.003741,0.011416,cluster1
659,2679.262777,0.00358,0.01265,cluster1
660,2710.323172,0.003798,0.017594,cluster1
661,2540.211467,0.004407,0.024514,cluster1
662,2513.855812,0.004399,0.021298,cluster1
663,2570.058241,0.004058,0.018806,cluster1
664,2537.348876,0.004203,0.019377,cluster1
665,2530.552412,0.004278,0.02184,cluster1
666,2486.73994,0.004268,0.021188,cluster1
667,2497.000943,0.004562,0.027944,cluster1
668,2570.225597,0.003615,0.016591,cluster1
669,2463.656942,0.004703,0.031585,cluster1
670,2426.273793,0.00484,0.036744,cluster1
671,2452.609969,0.004487,0.023959,cluster1
672,2490.286364,0.004298,0.022856,cluster1
673,2538.536965,0.0037,0.014392,cluster1
674,2440.294184,0.004397,0.023766,cluster1
675,2345.558607,0.004874,0.029174,cluster1
676,2454.293722,0.003826,0.014132,cluster1
677,2479.73734,0.004023,0.016524,cluster1
678,2457.518427,0.004516,0.023801,cluster1
679,2430.572815,0.004228,0.016573,cluster1
680,2603.370993,0.002195,0.000402,cluster2
681,2460.355915,0.003878,0.016374,cluster1
682,2386.853018,0.004381,0.023662,cluster1
683,2543.228299,0.003742,0.018622,cluster1
684,2518.457517,0.00426,0.023852,cluster1
685,2352.672159,0.004196,0.023053,cluster1
686,2417.022072,0.003767,0.011133,cluster1
687,2558.439775,0.003164,0.008583,cluster1
688,2307.350492,0.004457,0.025563,cluster1
689,2430.001816,0.003504,0.017014,cluster1
690,2446.88108,0.004076,0.016555,cluster1
691,2391.750677,0.003908,0.013464,cluster1
692,2281.181554,0.004149,0.020692,cluster1
693,2243.512706,0.004261,0.019519,cluster1
694,2302.138031,0.003349,0.008746,cluster1
695,2223.644929,0.003433,0.007029,cluster1
696,2201.531446,0.003801,0.011691,cluster1
697,2273.902052,0.004002,0.014375,cluster1
698,2335.764282,0.003316,0.008785,cluster1
699,2276.834596,0.004444,0.025295,cluster1
700,2308.116419,0.003577,0.006551,cluster1
701,2286.983068,0.003619,0.007284,cluster1
702,2153.508976,0.003173,0.00423,cluster2
703,2223.557959,0.003658,0.010113,cluster1
704,2193.749083,0.004012,0.020103,cluster1
705,2143.356853,0.003553,0.010447,cluster1
706,2165.498855,0.003427,0.006483,cluster1
707,2116.259734,0.003842,0.010634,cluster1
708,2099.954797,0.00399,0.016063,cluster1
709,2077.484465,0.004009,0.013493,cluster1
710,2061.04038,0.0034,0.008639,cluster2
711,2060.633405,0.003723,0.010774,cluster1
712,1994.514561,0.004923,0.027425,cluster1
713,2043.539584,0.003215,0.006539,cluster2
714,2012.038296,0.002078,0.000726,cluster2
715,1999.335621,0.002021,0.00018,cluster2
716,1994.676458,0.002012,0.000309,cluster2
717,1928.995548,0.00328,0.007162,cluster2
718,1984.788558,0.003245,0.0058,cluster2
719,1959.136462,0.002059,0.000172,cluster2
720,1975.281858,0.002484,0.002965,cluster2
721,2049.362372,0.002184,0.000284,cluster2
722,2050.899004,0.002106,0.000141,cluster2
723,2021.526923,0.002174,0.000451,cluster2
724,1968.703164,0.002077,0.000293,cluster2
725,1992.98058,0.002124,0.000292,cluster2
726,2023.694113,0.002062,0.000433,cluster2
727,1884.176773,0.002153,0.000265,cluster2
728,1879.119922,0.002178,0.000439,cluster2
729,1934.750838,0.002175,0.000227,cluster2
730,1869.420469,0.002604,0.000624,cluster2
731,1845.796983,0.002019,0.000358,cluster2
732,1871.586449,0.002093,0.000499,cluster2
733,1830.122924,0.00213,0.000946,cluster2
734,1837.650901,0.002361,0.00065,cluster2
735,1824.619533,0.002763,0.002597,cluster2
736,1800.854506,0.003141,0.007468,cluster2
737,1830.578595,0.002277,0.000263,cluster2
738,1743.458696,0.00292,0.00373,cluster2
739,1743.345921,0.003337,0.00424,cluster2
740,1787.67748,0.003534,0.005413,cluster2
741,1741.663932,0.003845,0.014584,cluster1
742,1801.498462,0.004147,0.009728,cluster1
743,1752.674537,0.003359,0.00647,cluster2
744,1753.435754,0.002332,0.000337,cluster2
745,1704.299401,0.002688,0.000863,cluster2
746,1644.017056,0.002582,0.001278,cluster2
747,1607.564225,0.002455,0.001312,cluster0
748,1631.812613,0.002126,0.000159,cluster0
749,1598.77207,0.002051,0.000176,cluster0
750,1536.502861,0.002125,0.000776,cluster0
751,1548.47192,0.001981,0.000127,cluster0
752,1511.365085,0.002112,0.000124,cluster0
753,1588.951803,0.002064,0.000201,cluster0
754,1594.057786,0.002301,0.000951,cluster0
755,1535.347807,0.002292,0.000194,cluster0
756,1598.756549,0.003034,0.002709,cluster2
757,1604.487735,0.002534,0.001412,cluster2
758,1554.14402,0.002217,0.000285,cluster0
759,1476.702957,0.001889,0.000133,cluster0
760,1497.389087,0.00202,0.000234,cluster0
761,1571.692766,0.001972,0.000131,cluster0
762,1532.523186,0.002118,0.000479,cluster0
763,1471.338193,0.002881,0.001664,cluster0
764,1536.288754,0.001992,0.00016,cluster0
765,1456.447716,0.00196,0.000113,cluster0
766,1438.384124,0.001962,0.000122,cluster0
767,1447.784318,0.001969,0.000154,cluster0
768,1483.704106,0.002453,0.001589,cluster0
769,1433.429325,0.002026,0.000817,cluster0
770,1438.709238,0.002089,0.000147,cluster0
771,1472.763171,0.002141,0.000473,cluster0
772,1351.603933,0.002662,0.001605,cluster0
773,1342.33091,0.002535,0.000181,cluster0
774,1377.960804,0.002426,0.000947,cluster0
775,1415.242805,0.002328,0.000299,cluster0
776,1398.082357,0.002632,0.003103,cluster0
777,1387.335296,0.003003,0.002423,cluster0
778,1373.15675,0.002944,0.003469,cluster0
779,1374.390699,0.001984,0.001539,cluster0
780,1413.97158,0.002044,0.000187,cluster0
781,1381.155009,0.002391,0.0019,cluster0
782,1375.118291,0.002495,0.00211,cluster0
783,1415.836878,0.00224,0.000609,cluster0
784,1369.393486,0.001945,0.000195,cluster0
785,1472.675511,0.002215,0.000974,cluster0
786,1462.916699,0.001954,0.000364,cluster0
787,1458.658932,0.002177,0.000162,cluster0
788,1469.965285,0.002218,0.001888,cluster0
789,1426.396359,0.001977,0.000113,cluster0
790,1515.452449,0.002182,0.000193,cluster0
791,1475.967169,0.002023,0.000411,cluster0
792,1410.115965,0.002047,0.000123,cluster0
793,1411.101233,0.002039,0.000129,cluster0
794,1426.689004,0.002347,0.000835,cluster0
795,1427.04484,0.002312,0.000859,cluster0
796,1469.24836,0.002149,0.000687,cluster0
797,1389.024203,0.001847,0.00014,cluster0
798,1431.391215,0.002667,0.002587,cluster0
799,1396.40376,0.002374,0.002285,cluster0
800,1488.90063,0.002128,0.000402,cluster0
801,1420.156467,0.001882,0.000128,cluster0
802,1476.503644,0.002549,0.002482,cluster0
803,1443.72474,0.002,0.000206,cluster0
804,1462.581607,0.002213,0.001355,cluster0
805,1395.531219,0.002066,0.00054,cluster0
806,1356.651646,0.002027,0.000238,cluster0
807,1349.245031,0.001934,0.000153,cluster0
808,1341.736631,0.002204,0.001134,cluster0
809,1368.721606,0.001826,0.000091,cluster0
810,1360.588378,0.001912,0.000087,cluster0
811,1401.084272,0.002025,0.000153,cluster0
812,1423.81883,0.001838,0.000129,cluster0
813,1399.336922,0.002039,0.000196,cluster0
814,1464.893176,0.001988,0.00011,cluster0
815,1437.111775,0.001998,0.000152,cluster0
816,1410.479704,0.001911,0.000124,cluster0
817,1393.771451,0.001909,0.000104,cluster0
818,1340.247309,0.001963,0.000103,cluster0
819,1398.946348,0.001962,0.000093,cluster0
820,1417.264606,0.001876,0.000133,cluster0
821,1392.739377,0.001978,0.000146,cluster0
822,1355.880011,0.002268,0.000382,cluster0
823,1404.123194,0.002003,0.000092,cluster0
824,1364.817459,0.001931,0.000209,cluster0
825,1321.596466,0.00193,0.00041,cluster0
826,1381.195436,0.001916,0.000184,cluster0
827,1396.497543,0.002273,0.001627,cluster0
828,1427.412975,0.00205,0.000278,cluster0
829,1382.564643,0.002772,0.001136,cluster0
830,1395.710081,0.002022,0.000144,cluster0
831,1368.291662,0.001996,0.000112,cluster0
832,1383.699485,0.001966,0.00013,cluster0
833,1417.705848,0.001915,0.000132,cluster0
834,1288.47457,0.001925,0.001188,cluster0
835,1378.550618,0.001996,0.000426,cluster0
836,1369.808181,0.001911,0.00017,cluster0
837,1313.103716,0.00203,0.000527,cluster0
838,1305.709817,0.001981,0.000132,cluster0
839,1325.349167,0.002142,0.000366,cluster0
840,1310.652928,0.002901,0.00555,cluster0
841,1378.044173,0.002361,0.001646,cluster0
842,1404.846043,0.002106,0.000123,cluster0
843,1357.440499,0.002341,0.000218,cluster0
844,1374.229206,0.001954,0.000156,cluster0
845,1380.344232,0.002306,0.000146,cluster0
846,1364.141844,0.001799,0.000101,cluster0
847,1346.519359,0.001963,0.000161,cluster0
848,1278.078441,0.001988,0.000197,cluster0
849,1336.510466,0.002007,0.000197,cluster0
850,1423.57456,0.001883,0.000206,cluster0
851,1359.681394,0.002089,0.000142,cluster0
852,1270.726282,0.002051,0.000113,cluster0
853,1235.296435,0.002368,0.000139,cluster0
854,1343.141174,0.001909,0.000135,cluster0
855,1318.317492,0.00194,0.000117,cluster0
856,1285.491229,0.002213,0.000325,cluster0
857,1284.197608,0.002016,0.000478,cluster0
858,1260.499549,0.002046,0.000577,cluster0
859,1269.518898,0.002105,0.000128,cluster0
860,1306.983148,0.001907,0.000237,cluster0
861,1265.742755,0.001961,0.00023,cluster0
862,1258.783217,0.001937,0.000103,cluster0
863,1223.292838,0.002035,0.000099,cluster0
864,1244.454194,0.002013,0.000843,cluster0
865,1214.235199,0.002126,0.000294,cluster0
866,1207.95799,0.001999,0.000278,cluster0
867,1238.513086,0.001885,0.000336,cluster0
868,1331.23543,0.001935,0.000309,cluster0
869,1264.879028,0.002199,0.000692,cluster0
870,1173.860202,0.002215,0.003502,cluster0
871,1256.902253,0.002307,0.000368,cluster0
872,1264.27855,0.002206,0.000116,cluster0
873,1188.70368,0.001994,0.000133,cluster0
874,1219.118342,0.002051,0.000203,cluster0
875,1236.511991,0.002027,0.000346,cluster0
876,1312.218818,0.001948,0.000579,cluster0
877,1229.639021,0.001894,0.000355,cluster0
878,1302.472791,0.002219,0.000652,cluster0
879,1254.72309,0.002838,0.00431,cluster0
880,1144.461324,0.003177,0.005576,cluster0
881,1133.590813,0.001912,0.000177,cluster0
882,1197.037553,0.001793,0.000109,cluster0
883,1118.707625,0.001721,0.0001,cluster0
884,1214.320001,0.001968,0.000309,cluster0
885,1137.112132,0.00183,0.000088,cluster0
886,1163.63236,0.002038,0.000243,cluster0
887,1197.768846,0.002057,0.000138,cluster0
888,1127.286241,0.001848,0.000111,cluster0
889,1151.869627,0.001915,0.000095,cluster0
890,1164.417933,0.002164,0.000152,cluster0
891,1149.619153,0.001984,0.000239,cluster0
892,1049.800392,0.002125,0.000386,cluster0
893,1128.125263,0.002148,0.000189,cluster0
894,1119.323928,0.001935,0.000115,cluster0
895,1119.198293,0.002332,0.00453,cluster0
896,1065.896879,0.002067,0.00018,cluster0
897,1027.398836,0.002077,0.000102,cluster0
898,1075.492079,0.00194,0.000365,cluster0
899,1107.319549,0.00195,0.000106,cluster0
900,1148.483448,0.002189,0.000361,cluster0
901,1167.901471,0.001932,0.000117,cluster0
902,1200.537124,0.002367,0.000609,cluster0
903,1113.950664,0.001996,0.000109,cluster0
904,1141.060484,0.001993,0.000132,cluster0
905,1150.537382,0.001849,0.00012,cluster0
906,1080.868181,0.001927,0.000097,cluster0
907,1180.536406,0.001891,0.000084,cluster0
908,1089.992886,0.001852,0.000119,cluster0
909,1157.247279,0.002254,0.000358,cluster0
910,1146.004255,0.002575,0.003719,cluster0
911,1277.223011,0.002034,0.000134,cluster0
912,1152.415979,0.001971,0.000364,cluster0
913,1138.621008,0.001854,0.000132,cluster0
914,1170.847795,0.002011,0.000095,cluster0
915,1235.417507,0.00226,0.000543,cluster0
916,1252.422772,0.002627,0.001631,cluster0
917,1218.944052,0.00259,0.002728,cluster0
918,1155.506006,0.003239,0.005769,cluster0
919,1112.928852,0.002854,0.003937,cluster0
920,1160.539485,0.002313,0.000158,cluster0
921,1215.599403,0.002575,0.001622,cluster0
922,1162.435255,0.002061,0.000107,cluster0
923,1088.039861,0.002053,0.000116,cluster0
924,1180.813599,0.002124,0.000147,cluster0
925,1120.210022,0.002068,0.000285,cluster0
926,1135.0737,0.001933,0.000316,cluster0
927,1062.786046,0.001985,0.000122,cluster0
928,1107.773401,0.001982,0.000104,cluster0
929,1150.564871,0.002039,0.000133,cluster0
930,1126.882082,0.002014,0.00015,cluster0
931,1219.051565,0.002263,0.000409,cluster0
932,1176.258765,0.001894,0.000126,cluster0
933,1191.807272,0.002234,0.001128,cluster0
934,1278.821458,0.002197,0.000146,cluster0
935,1185.754843,0.002083,0.000133,cluster0
936,1177.676822,0.001901,0.0004,cluster0
937,1239.59222,0.001951,0.000131,cluster0
938,1270.171925,0.001845,0.000095,cluster0
939,1228.40689,0.002091,0.000296,cluster0
940,1227.183919,0.00205,0.000144,cluster0
941,1260.650768,0.002265,0.000137,cluster0
942,1233.68005,0.002336,0.000709,cluster0
943,1221.51191,0.002421,0.000168,cluster0
944,1200.852059,0.002343,0.000153,cluster0
945,1250.932681,0.002289,0.000155,cluster0
946,1270.373819,0.0026,0.000931,cluster0
947,1302.807897,0.0022,0.000133,cluster0
948,1307.781803,0.002034,0.000128,cluster0
949,1347.561328,0.002088,0.00056,cluster0
950,1359.855583,0.0027,0.000203,cluster0
951,1344.20578,0.002625,0.000291,cluster0
952,1312.028796,0.002604,0.001316,cluster0
953,1265.180631,0.00259,0.000179,cluster0
954,1290.725862,0.002482,0.001863,cluster0
955,1330.953061,0.002518,0.000681,cluster0
956,1378.88091,0.002172,0.000122,cluster0
957,1316.179617,0.002175,0.00019,cluster0
958,1223.64752,0.002115,0.000132,cluster0
959,1300.856385,0.002283,0.000259,cluster0
960,1341.42955,0.002234,0.000546,cluster0
961,1325.705541,0.002252,0.000488,cluster0
962,1356.104531,0.002252,0.000158,cluster0
963,1419.660109,0.001989,0.00016,cluster0
964,1361.590763,0.002365,0.000245,cluster0
965,1372.066781,0.002048,0.000127,cluster0
966,1360.872359,0.002367,0.000461,cluster0
967,1375.49388,0.002728,0.000246,cluster0
968,1401.973025,0.002465,0.000198,cluster0
969,1420.696658,0.00225,0.000148,cluster0
970,1409.353517,0.002142,0.000137,cluster0
971,1406.31417,0.002043,0.000237,cluster0
972,1382.050159,0.00219,0.00015,cluster0
973,1478.220873,0.002068,0.000235,cluster0
974,1408.500149,0.002066,0.000174,cluster0
975,1395.197464,0.002198,0.000145,cluster0
976,1499.302291,0.002114,0.002811,cluster0
977,1537.086154,0.002313,0.000207,cluster0
978,1558.445112,0.002093,0.000818,cluster0
979,1484.017477,0.002167,0.000392,cluster0
980,1568.428809,0.002307,0.000182,cluster0
981,1573.843729,0.002289,0.001005,cluster0
982,1548.768667,0.002666,0.000386,cluster0
983,1473.230408,0.00248,0.001713,cluster0
984,1555.09353,0.002674,0.002103,cluster2
985,1549.133956,0.002466,0.000197,cluster0
986,1569.599527,0.002627,0.000204,cluster0
987,1526.766788,0.002736,0.001106,cluster0
988,1502.824325,0.002581,0.000866,cluster0
989,1451.179572,0.002151,0.000259,cluster0
990,1556.676159,0.002221,0.000525,cluster0
991,1633.426416,0.002,0.000143,cluster0
992,1482.710733,0.001874,0.000136,cluster0
993,1583.420782,0.002011,0.00016,cluster0
994,1525.503733,0.002172,0.000152,cluster0
995,1582.324119,0.00205,0.000172,cluster0
996,1566.587322,0.002004,0.000169,cluster0
997,1601.764796,0.00203,0.000166,cluster0
998,1638.810667,0.001914,0.000147,cluster0
999,1583.464385,0.002028,0.00019,cluster0
1000,1684.368798,0.001834,0.000169,cluster0
1001,1615.444787,0.001935,0.00013,cluster0
1002,1647.865044,0.002031,0.000143,cluster0
1003,1665.455776,0.002001,0.000156,cluster0
1004,1656.402462,0.002156,0.000144,cluster0
1005,1607.149273,0.002011,0.000202,cluster0
1006,1645.094365,0.001986,0.000152,cluster0
1007,1668.131664,0.001793,0.000134,cluster0
1008,1667.206921,0.002159,0.00014,cluster0
1009,1600.248839,0.00189,0.00014,cluster0
1010,1652.117175,0.002719,0.000923,cluster2
1011,1678.572482,0.001927,0.00016,cluster0
1012,1658.933187,0.002666,0.00052,cluster2
1013,1650.534621,0.002864,0.001474,cluster2
1014,1713.803113,0.002478,0.000382,cluster2
1015,1649.701838,0.00238,0.001328,cluster0
1016,1679.706036,0.002053,0.000416,cluster0
1017,1641.963713,0.002288,0.000146,cluster0
1018,1687.940431,0.00233,0.000157,cluster0
1019,1676.999011,0.001948,0.000149,cluster0
1020,1770.780961,0.002513,0.00035,cluster2
1021,1919.380505,0.002235,0.000426,cluster2
1022,1740.574719,0.002631,0.000474,cluster2
1023,1672.63484,0.002648,0.00073,cluster2
1024,1756.255927,0.002629,0.000412,cluster2
1025,1820.885204,0.002156,0.000182,cluster2
1026,1717.200486,0.002224,0.000158,cluster0
1027,1719.433179,0.00257,0.000615,cluster2
1028,1802.41736,0.002696,0.000311,cluster2
1029,1784.852439,0.002489,0.000256,cluster2
1030,1789.635566,0.001969,0.000119,cluster2
1031,1827.910373,0.002226,0.00071,cluster2
1032,1803.390569,0.002757,0.000674,cluster2
1033,1786.216501,0.002815,0.001553,cluster2
1034,1795.3431,0.002761,0.001602,cluster2
1035,1756.288426,0.002593,0.001153,cluster2
1036,1750.2684,0.002238,0.000329,cluster2
1037,1742.921286,0.002176,0.000215,cluster0
1038,1762.788596,0.002043,0.000168,cluster2
1039,1832.80212,0.001898,0.000156,cluster2
1040,1819.874708,0.002051,0.000175,cluster2
1041,1842.045794,0.00226,0.000206,cluster2
1042,1857.705972,0.002813,0.000429,cluster2
1043,1905.118541,0.002836,0.001512,cluster2
1044,1825.158432,0.002429,0.000212,cluster2
1045,1832.308052,0.002362,0.000674,cluster2
1046,1841.479188,0.002426,0.000237,cluster2
1047,1983.958114,0.002382,0.001442,cluster2
1048,1794.052481,0.002606,0.002473,cluster2
1049,1826.228814,0.00266,0.000338,cluster2
1050,1875.531022,0.002492,0.000358,cluster2
1051,1852.638111,0.002072,0.000172,cluster2
1052,1861.044956,0.00218,0.000196,cluster2
1053,1908.92141,0.002403,0.00018,cluster2
1054,1932.39907,0.002612,0.000357,cluster2
1055,1893.583722,0.002367,0.00028,cluster2
1056,1914.240528,0.00277,0.002774,cluster2
1057,1914.367462,0.002818,0.000493,cluster2
1058,1895.6033,0.002701,0.000976,cluster2
1059,1965.538093,0.002291,0.000232,cluster2
1060,1955.801365,0.002211,0.000964,cluster2
1061,1917.104714,0.003102,0.001042,cluster2
1062,1943.661159,0.002868,0.000888,cluster2
1063,1948.267737,0.002819,0.000632,cluster2
1064,1884.035343,0.002883,0.001097,cluster2
1065,1957.637601,0.002699,0.000786,cluster2
1066,1962.046114,0.002652,0.000443,cluster2
1067,1948.929324,0.002756,0.001396,cluster2
1068,1929.266661,0.002956,0.001689,cluster2
1069,1960.475084,0.00333,0.004291,cluster2
1070,2014.773087,0.003371,0.002786,cluster2
1071,1934.761519,0.003085,0.001994,cluster2
1072,1923.584107,0.002851,0.001052,cluster2
1073,1946.289527,0.003037,0.001105,cluster2
1074,1984.473916,0.002854,0.00108,cluster2
1075,1941.890182,0.002934,0.000803,cluster2
1076,1991.620295,0.002834,0.000529,cluster2
1077,2023.282566,0.003054,0.001969,cluster2
1078,1966.625296,0.002407,0.000228,cluster2
1079,1944.89633,0.002973,0.001161,cluster2
1080,1937.789621,0.002553,0.000276,cluster2
1081,2009.87152,0.002215,0.000216,cluster2
1082,2083.42787,0.002613,0.000309,cluster2
1083,2049.16361,0.00338,0.005033,cluster2
1084,2034.246157,0.002828,0.001175,cluster2
1085,2036.365915,0.002999,0.001775,cluster2
1086,2004.590841,0.003446,0.006459,cluster2
1087,1978.162986,0.003143,0.001377,cluster2
1088,2009.153608,0.003072,0.000511,cluster2
1089,2060.910721,0.002883,0.002059,cluster2
1090,2064.809216,0.002889,0.001063,cluster2
1091,2023.46791,0.002539,0.000357,cluster2
1092,2003.973389,0.002983,0.001728,cluster2
1093,2092.596068,0.00279,0.000951,cluster2
1094,2084.892036,0.002912,0.002584,cluster2
1095,2067.622941,0.002775,0.000828,cluster2
1096,2075.314104,0.002836,0.000611,cluster2
1097,2065.150416,0.003342,0.004999,cluster2
1098,2044.798819,0.00308,0.001123,cluster2
1099,2049.345893,0.003074,0.00165,cluster2
1100,2082.373092,0.0029,0.001555,cluster2
1101,2103.582803,0.002827,0.001665,cluster2
1102,2162.150456,0.00314,0.002304,cluster2
1103,2059.50828,0.003224,0.00396,cluster2
1104,2055.278358,0.003122,0.001758,cluster2
1105,2002.066065,0.002892,0.001842,cluster2
1106,1881.201214,0.002692,0.001713,cluster2
1107,1937.039919,0.003113,0.001465,cluster2
1108,1912.793468,0.002914,0.00138,cluster2
1109,1875.815413,0.00281,0.000462,cluster2
1110,1968.366022,0.002912,0.005038,cluster2
1111,1996.556081,0.003019,0.001465,cluster2
1112,2025.594425,0.002717,0.000383,cluster2
1113,1996.975172,0.002722,0.001726,cluster2
1114,2024.196197,0.002243,0.000247,cluster2
1115,2055.917241,0.002837,0.001048,cluster2
1116,2056.218007,0.003122,0.002884,cluster2
1117,1952.756754,0.003128,0.003363,cluster2
1118,1975.208158,0.003437,0.001329,cluster2
1119,2043.246257,0.003263,0.001783,cluster2
1120,1997.864773,0.003047,0.002246,cluster2
1121,1998.112776,0.00292,0.002568,cluster2
1122,2067.99721,0.003015,0.001338,cluster2
1123,2024.506394,0.002364,0.000245,cluster2
1124,2046.650596,0.002414,0.000692,cluster2
1125,2044.529524,0.003434,0.002975,cluster2
1126,2048.016787,0.00241,0.000273,cluster2
1127,1956.553099,0.003102,0.001676,cluster2
1128,2143.43848,0.003102,0.000876,cluster2
1129,2050.673661,0.002869,0.001161,cluster2
1130,2094.82974,0.003084,0.002437,cluster2
1131,2069.763836,0.002529,0.000817,cluster2
1132,2047.622533,0.00292,0.002405,cluster2
1133,2036.936372,0.002803,0.000687,cluster2
1134,2042.381305,0.002757,0.000607,cluster2
1135,2052.242292,0.002984,0.00433,cluster2
1136,2008.860036,0.002573,0.000298,cluster2
1137,2033.580396,0.003089,0.001739,cluster2
1138,2050.667283,0.003074,0.002288,cluster2
1139,2004.746639,0.002858,0.000353,cluster2
1140,2070.669446,0.003103,0.003886,cluster2
1141,2060.602596,0.003044,0.001623,cluster2
1142,2005.206587,0.003053,0.002664,cluster2
1143,2037.008154,0.002809,0.001819,cluster2
1144,2042.047165,0.002552,0.000412,cluster2
1145,2129.218679,0.003274,0.001249,cluster2
1146,2030.166653,0.003191,0.003027,cluster2
1147,2036.769776,0.003248,0.001133,cluster2
1148,2143.124082,0.00253,0.00033,cluster2
1149,2041.083762,0.002562,0.001156,cluster2
1150,2106.594956,0.002556,0.001475,cluster2
1151,2138.154848,0.002158,0.000338,cluster2
1152,2089.006667,0.00326,0.001387,cluster2
1153,2081.169786,0.003379,0.003149,cluster2
1154,2112.314309,0.002188,0.000313,cluster2
1155,2103.078661,0.002188,0.000283,cluster2
1156,2188.616851,0.002275,0.000774,cluster2
1157,2202.360849,0.002108,0.000363,cluster2
1158,2112.964782,0.003209,0.004084,cluster2
1159,2114.425134,0.00254,0.000863,cluster2
1160,2092.942878,0.002579,0.000855,cluster2
1161,2095.386269,0.002752,0.003301,cluster2
1162,2133.129834,0.002701,0.001988,cluster2
1163,2123.868258,0.002096,0.000247,cluster2
1164,2168.296263,0.002129,0.000282,cluster2
1165,2126.600572,0.001937,0.000134,cluster2
1166,2035.11904,0.001965,0.000171,cluster2
1167,2119.787723,0.002133,0.000221,cluster2
1168,2054.746045,0.001919,0.001058,cluster2
1169,2099.59256,0.002504,0.002383,cluster2
1170,2128.799481,0.003129,0.000985,cluster2
1171,2170.839251,0.003149,0.00179,cluster2
1172,2107.956021,0.003119,0.002598,cluster2
1173,2109.911615,0.003216,0.003359,cluster2
1174,2080.259814,0.003589,0.009007,cluster1
1175,2175.504044,0.003068,0.00142,cluster2
1176,2219.380891,0.003047,0.001875,cluster2
1177,2091.606852,0.002873,0.002263,cluster2
1178,2175.135949,0.002379,0.00026,cluster2
1179,2267.381634,0.002121,0.000402,cluster2
1180,2170.4697,0.002158,0.000185,cluster2
1181,2188.911008,0.002153,0.000302,cluster2
1182,2211.482837,0.002084,0.00024,cluster2
1183,2169.114143,0.002366,0.001118,cluster2
1184,2162.899055,0.002258,0.000226,cluster2
1185,2206.801511,0.002082,0.000271,cluster2
1186,2224.60938,0.002111,0.001867,cluster2
1187,2246.625058,0.002229,0.00022,cluster2
1188,2255.149493,0.002151,0.000909,cluster2
1189,2304.892788,0.00208,0.000222,cluster2
1190,2508.127403,0.002211,0.000541,cluster2
1191,2266.314665,0.003335,0.013116,cluster1
1192,2253.992123,0.002665,0.001785,cluster2
1193,2248.218203,0.003957,0.007718,cluster1
1194,2207.021306,0.003952,0.010921,cluster1
1195,2166.83079,0.003199,0.005607,cluster2
1196,2255.005466,0.003255,0.004685,cluster1
1197,2260.38459,0.004308,0.016809,cluster1
1198,2268.601356,0.003839,0.010528,cluster1
1199,2226.915122,0.003315,0.006254,cluster1
1200,2232.308658,0.003404,0.005134,cluster1
1201,2253.756777,0.003309,0.005627,cluster1
1202,2214.757917,0.003195,0.003792,cluster2
1203,2231.908333,0.003529,0.00681,cluster1
1204,2201.146553,0.003305,0.004542,cluster2
1205,2283.651227,0.003629,0.003737,cluster1
1206,2219.768574,0.003837,0.007092,cluster1
1207,2216.916392,0.003664,0.006353,cluster1
1208,2213.746869,0.004265,0.01498,cluster1
1209,2305.971073,0.003617,0.007949,cluster1
1210,2264.978355,0.00344,0.004676,cluster1
1211,2150.456503,0.002932,0.002453,cluster2
1212,2248.593849,0.003814,0.009877,cluster1
1213,2258.31894,0.003807,0.010637,cluster1
1214,2249.69434,0.003909,0.012953,cluster1
1215,2241.801101,0.003771,0.010439,cluster1
1216,2278.666214,0.003616,0.008662,cluster1
1217,2231.331016,0.004213,0.017143,cluster1
1218,2178.929627,0.00381,0.008266,cluster1
1219,2248.253851,0.004002,0.011501,cluster1
1220,2269.377825,0.003556,0.006548,cluster1
1221,2327.500625,0.003752,0.009864,cluster1
1222,2271.112754,0.003592,0.007147,cluster1
1223,2252.753941,0.003541,0.007228,cluster1
1224,2231.305932,0.003456,0.006649,cluster1
1225,2225.022807,0.003465,0.007129,cluster1
1226,2277.069658,0.003848,0.011793,cluster1
1227,2154.182777,0.00354,0.007008,cluster1
1228,2183.457183,0.003934,0.010867,cluster1
1229,2247.548236,0.003698,0.009569,cluster1
1230,2137.784991,0.002673,0.000466,cluster2
1231,2153.22869,0.004292,0.019257,cluster1
1232,2209.276641,0.0035,0.005091,cluster1
1233,2255.18305,0.003856,0.011642,cluster1
1234,2245.906687,0.004205,0.018374,cluster1
1235,2248.09279,0.003593,0.008624,cluster1
1236,2153.037647,0.004593,0.022293,cluster1
1237,2218.478363,0.00434,0.016909,cluster1
1238,2300.935584,0.003513,0.005501,cluster1
1239,2289.080779,0.003605,0.007137,cluster1
1240,2242.676589,0.003651,0.008929,cluster1
1241,2341.412238,0.004068,0.01505,cluster1
1242,2353.72024,0.00386,0.012032,cluster1
1243,2338.950781,0.003455,0.007394,cluster1
1244,2281.425301,0.002659,0.004563,cluster2
1245,2206.61572,0.00391,0.015888,cluster1
1246,2252.414751,0.004289,0.017692,cluster1
1247,2260.078233,0.003732,0.00972,cluster1
1248,2258.055128,0.004195,0.018917,cluster1
1249,2239.679803,0.00403,0.012327,cluster1
1250,2235.763573,0.004106,0.01354,cluster1
1251,2224.042389,0.004934,0.030602,cluster1
1252,2209.907646,0.004544,0.020149,cluster1
1253,2278.178582,0.003903,0.014429,cluster1
1254,2236.129389,0.003775,0.010096,cluster1
1255,2231.151538,0.003439,0.005746,cluster1
1256,2206.321165,0.004011,0.01955,cluster1
1257,2230.240169,0.003527,0.007023,cluster1
1258,2262.959811,0.003711,0.010828,cluster1
1259,2110.999169,0.003866,0.010202,cluster1
1260,2208.731171,0.003702,0.006698,cluster1
1261,2197.252281,0.004082,0.015854,cluster1
1262,2206.750048,0.004151,0.014844,cluster1
1263,2179.405561,0.004817,0.029593,cluster1
1264,2187.341754,0.004755,0.027087,cluster1
1265,2299.640438,0.00354,0.005405,cluster1
1266,2253.790898,0.004286,0.01805,cluster1
1267,2303.020557,0.003668,0.008965,cluster1
1268,2285.814488,0.003524,0.006069,cluster1
1269,2289.751399,0.003312,0.007221,cluster1
1270,2328.511571,0.003758,0.010249,cluster1
1271,2280.825886,0.003651,0.013829,cluster1
1272,2273.960645,0.003867,0.01111,cluster1
1273,2235.096857,0.003832,0.010935,cluster1
1274,2254.410632,0.004211,0.020335,cluster1
1275,2191.706683,0.005129,0.036484,cluster1
1276,2258.393066,0.004388,0.022701,cluster1
1277,2226.192252,0.003724,0.007903,cluster1
1278,2294.762667,0.004327,0.022364,cluster1
1279,2261.277887,0.003905,0.013819,cluster1
1280,2244.797934,0.003653,0.012382,cluster1
1281,2278.291447,0.003895,0.013694,cluster1
1282,2247.0944,0.004244,0.020812,cluster1
1283,2282.137434,0.004016,0.015931,cluster1
1284,2287.014475,0.003519,0.009239,cluster1
1285,2335.096221,0.003955,0.014586,cluster1
1286,2276.799136,0.003621,0.009635,cluster1
1287,2274.90191,0.004939,0.033795,cluster1
1288,2174.005431,0.005137,0.034542,cluster1
1289,2212.654364,0.00365,0.011891,cluster1
1290,2241.70109,0.004168,0.013011,cluster1
1291,2192.353804,0.004491,0.021574,cluster1
1292,2386.38187,0.004257,0.017591,cluster1
1293,2231.982657,0.004595,0.025875,cluster1
1294,2359.395285,0.003909,0.011962,cluster1
1295,2336.390747,0.00399,0.016091,cluster1
1296,2314.560853,0.004014,0.014509,cluster1
1297,2388.119103,0.003104,0.006896,cluster1
1298,2289.061128,0.004758,0.027652,cluster1
1299,2239.705614,0.0052,0.03338,cluster1
1300,2318.718515,0.0043,0.01449,cluster1
1301,2400.706415,0.003951,0.015298,cluster1
1302,2373.109211,0.004186,0.018534,cluster1
1303,2296.4908,0.004792,0.028638,cluster1
1304,2284.921171,0.004886,0.025509,cluster1
1305,2219.76842,0.005301,0.037656,cluster1
1306,2287.781214,0.004522,0.02181,cluster1
1307,2292.038734,0.004855,0.028512,cluster1
1308,2327.280176,0.004359,0.020154,cluster1
1309,2307.201423,0.004591,0.026582,cluster1
1310,2252.229382,0.004372,0.021546,cluster1
1311,2359.385001,0.004185,0.015708,cluster1
1312,2348.402533,0.004528,0.023583,cluster1
1313,2263.788094,0.005058,0.035146,cluster1
1314,2320.004681,0.004457,0.026903,cluster1
1315,2388.363878,0.004396,0.01731,cluster1
1316,2304.149147,0.004796,0.028512,cluster1
1317,2350.139999,0.00415,0.011562,cluster1
1318,2259.010005,0.004497,0.019687,cluster1
1319,2270.388336,0.004096,0.014333,cluster1
1320,2256.461772,0.003939,0.01044,cluster1
1321,2268.441081,0.004404,0.027519,cluster1
1322,2330.832328,0.002487,0.000501,cluster2
1323,2322.058622,0.002369,0.001451,cluster2
1324,2318.604106,0.005016,0.028606,cluster1
1325,2311.51749,0.004163,0.016895,cluster1
1326,2285.502219,0.004378,0.015851,cluster1
1327,2248.538132,0.004775,0.021614,cluster1
1328,2300.55844,0.004261,0.017433,cluster1
1329,2392.499529,0.003595,0.006911,cluster1
1330,2277.825932,0.003963,0.018193,cluster1
1331,2316.034153,0.003846,0.019334,cluster1
1332,2251.424885,0.004791,0.030608,cluster1
1333,2294.22872,0.004259,0.014475,cluster1
1334,2308.930994,0.004556,0.020697,cluster1
1335,2274.378,0.00479,0.02538,cluster1
1336,2235.420067,0.004939,0.031975,cluster1
1337,2333.60576,0.004353,0.021502,cluster1
1338,2411.555854,0.003984,0.014574,cluster1
1339,2377.460694,0.003825,0.010511,cluster1
1340,2394.675602,0.003726,0.012666,cluster1
1341,2436.930705,0.003945,0.01389,cluster1
1342,2382.368375,0.004367,0.024802,cluster1
1343,2374.618682,0.00378,0.011965,cluster1
1344,2365.207975,0.004029,0.016529,cluster1
1345,2356.380828,0.004257,0.01696,cluster1
1346,2387.873997,0.003786,0.012008,cluster1
1347,2400.802197,0.003649,0.011772,cluster1
1348,2350.503229,0.003419,0.006408,cluster1
1349,2377.416889,0.003795,0.012832,cluster1
1350,2396.442169,0.003327,0.010569,cluster1
1351,2321.803916,0.005021,0.030779,cluster1
1352,2314.835086,0.005248,0.036214,cluster1
1353,2362.775204,0.003836,0.01503,cluster1
1354,2402.711537,0.003566,0.015301,cluster1
1355,2454.784795,0.003376,0.009148,cluster1
1356,2351.702103,0.004929,0.028677,cluster1
1357,2339.444877,0.004534,0.024354,cluster1
1358,2406.240266,0.004526,0.030352,cluster1
1359,2448.196811,0.003892,0.015932,cluster1
1360,2461.293586,0.004523,0.022349,cluster1
1361,2413.207792,0.004785,0.028472,cluster1
1362,2369.449271,0.004393,0.020118,cluster1
1363,2350.464987,0.004311,0.019544,cluster1
1364,2464.70359,0.003837,0.012861,cluster1
1365,2515.676379,0.003989,0.014759,cluster1
1366,2419.015279,0.004132,0.018483,cluster1
1367,2454.638623,0.003964,0.015885,cluster1
1368,2460.910867,0.003785,0.011668,cluster1
1369,2492.139088,0.004195,0.020093,cluster1
1370,2431.305257,0.005422,0.03949,cluster1
1371,2464.388549,0.004364,0.02058,cluster1
1372,2552.477633,0.00414,0.014718,cluster1
1373,2442.464061,0.004229,0.019386,cluster1
1374,2489.960054,0.004869,0.031003,cluster1
1375,2535.89142,0.004296,0.021569,cluster1
1376,2418.509148,0.005045,0.035395,cluster1
1377,2513.956763,0.004081,0.01578,cluster1
1378,2529.345638,0.003746,0.02061,cluster1
1379,2597.215222,0.003936,0.015801,cluster1
1380,2643.781113,0.002501,0.001959,cluster2
1381,2639.143485,0.002686,0.004947,cluster2
1382,2581.150415,0.004152,0.021034,cluster1
1383,2606.441574,0.004032,0.014403,cluster1
1384,2571.486622,0.003898,0.016336,cluster1
1385,2497.141901,0.003737,0.011435,cluster1
1386,2515.556771,0.004081,0.016527,cluster1
1387,2506.907506,0.00415,0.019415,cluster1
1388,2477.771852,0.004241,0.026039,cluster1
1389,2398.220268,0.004622,0.031567,cluster1
1390,2504.532174,0.004351,0.023302,cluster1
1391,2408.05938,0.004072,0.017838,cluster1
1392,2404.154379,0.003612,0.009942,cluster1
1393,2393.011819,0.003831,0.010614,cluster1
1394,2451.543752,0.003946,0.012959,cluster1
1395,2456.606062,0.003621,0.01041,cluster1
1396,2485.76665,0.00403,0.016688,cluster1
1397,2476.201082,0.003641,0.009661,cluster1
1398,2393.152341,0.003503,0.007497,cluster1
1399,2399.406822,0.00436,0.023489,cluster1
1400,2401.903813,0.003794,0.012387,cluster1
1401,2395.251978,0.004383,0.021806,cluster1
1402,2401.173738,0.004042,0.015672,cluster1
1403,2383.790983,0.003683,0.011931,cluster1
1404,2392.709336,0.003884,0.014053,cluster1
1405,2282.380414,0.004788,0.028166,cluster1
1406,2299.18532,0.005396,0.04046,cluster1
1407,2298.627509,0.004721,0.029263,cluster1
1408,2283.145838,0.003892,0.014115,cluster1
1409,2325.801492,0.003033,0.003879,cluster2
1410,2295.713562,0.003793,0.01288,cluster1
1411,2253.570049,0.003755,0.009485,cluster1
1412,2278.36014,0.003618,0.010422,cluster1
1413,2243.237895,0.004081,0.014286,cluster1
1414,2298.910814,0.00411,0.015196,cluster1
1415,2286.753409,0.003652,0.007959,cluster1
1416,2267.711246,0.004081,0.016145,cluster1
1417,2246.719861,0.003648,0.010081,cluster1
1418,2260.34635,0.003741,0.012378,cluster1
1419,2198.847523,0.003825,0.013126,cluster1
1420,2255.593305,0.004186,0.016973,cluster1
1421,2158.91614,0.004161,0.01631,cluster1
1422,2196.655594,0.002854,0.004817,cluster2
1423,2211.548163,0.003673,0.00995,cluster1
1424,2150.855302,0.002427,0.001482,cluster2
1425,2175.057711,0.00236,0.000716,cluster2
1426,2174.156223,0.003263,0.006659,cluster2
1427,2077.292668,0.004437,0.020258,cluster1
1428,2042.418166,0.00402,0.018662,cluster1
1429,2111.282831,0.003357,0.00647,cluster2
1430,2091.465161,0.004045,0.014903,cluster1
1431,2068.262632,0.003691,0.008209,cluster1
1432,2016.224818,0.00354,0.005208,cluster2
1433,2010.045515,0.00346,0.006412,cluster2
1434,1971.41626,0.004537,0.018088,cluster1
1435,2001.079474,0.003226,0.004834,cluster2
1436,1979.731258,0.002157,0.000343,cluster2
1437,1895.657476,0.002966,0.005119,cluster2
1438,1975.021514,0.003767,0.010503,cluster1
1439,1877.666261,0.002061,0.000291,cluster2
1440,1960.050539,0.002622,0.002204,cluster2
1441,2008.956034,0.002121,0.000512,cluster2
1442,2055.346776,0.002018,0.000406,cluster2
1443,2006.976411,0.002369,0.001135,cluster2
1444,2029.1189,0.002214,0.00021,cluster2
1445,1952.660713,0.002842,0.003473,cluster2
1446,1982.026381,0.002204,0.000316,cluster2
1447,1934.703816,0.00226,0.000508,cluster2
1448,1933.61885,0.002131,0.000197,cluster2
1449,1970.165296,0.002129,0.000638,cluster2
1450,1870.558145,0.002161,0.000225,cluster2
1451,1837.151408,0.002223,0.000789,cluster2
1452,1804.967223,0.002187,0.000314,cluster2
1453,1891.11868,0.002167,0.001733,cluster2
1454,1858.110071,0.002309,0.00025,cluster2
1455,1815.010245,0.002061,0.000153,cluster2
1456,1912.398499,0.002274,0.001229,cluster2
1457,1742.117168,0.001936,0.000208,cluster0
1458,1769.84208,0.002151,0.000525,cluster2
1459,1853.170269,0.002228,0.001879,cluster2
1460,1818.237257,0.002812,0.002623,cluster2
1461,1742.1002,0.003456,0.005042,cluster2
1462,1777.090149,0.003914,0.011398,cluster1
1463,1762.860742,0.00215,0.001553,cluster2
1464,1746.886542,0.002086,0.000426,cluster2
1465,1687.36737,0.002103,0.000698,cluster0
1466,1660.225756,0.002525,0.001948,cluster2
1467,1611.271403,0.002496,0.002988,cluster2
1468,1611.50466,0.002117,0.000348,cluster0
1469,1576.07867,0.002131,0.000507,cluster0
1470,1608.110565,0.002078,0.00016,cluster0
1471,1599.48043,0.002334,0.000282,cluster0
1472,1631.398899,0.002746,0.001867,cluster2
1473,1572.368436,0.002132,0.001421,cluster0
1474,1605.804973,0.003095,0.002344,cluster2
1475,1591.110854,0.002911,0.006856,cluster2
1476,1574.862444,0.002953,0.005026,cluster2
1477,1540.78416,0.0028,0.002368,cluster2
1478,1515.691231,0.002185,0.000635,cluster0
1479,1519.348122,0.002319,0.000736,cluster0
1480,1542.597025,0.002557,0.002651,cluster0
1481,1574.915386,0.002121,0.000347,cluster0
1482,1547.894237,0.001927,0.000182,cluster0
1483,1496.250346,0.002101,0.000679,cluster0
1484,1481.935449,0.001842,0.000175,cluster0
1485,1443.698939,0.002058,0.000297,cluster0
1486,1479.365762,0.002334,0.00067,cluster0
1487,1460.087966,0.002537,0.004844,cluster0
1488,1467.853978,0.001918,0.000133,cluster0
1489,1446.523551,0.002091,0.000173,cluster0
1490,1446.364218,0.001926,0.00012,cluster0
1491,1477.547724,0.002263,0.002489,cluster0
1492,1361.445156,0.00208,0.000208,cluster0
1493,1365.826188,0.001909,0.000113,cluster0
1494,1405.739019,0.00214,0.000922,cluster0
1495,1424.443075,0.002544,0.004886,cluster0
1496,1448.659886,0.002084,0.000151,cluster0
1497,1312.515033,0.00192,0.00012,cluster0
1498,1250.516798,0.001998,0.000132,cluster0
1499,1257.491963,0.001979,0.000105,cluster0
1500,1349.684814,0.002137,0.000171,cluster0
1501,1379.936642,0.002056,0.000128,cluster0
1502,1441.171951,0.002832,0.002498,cluster0
1503,1395.960859,0.003079,0.002876,cluster0
1504,1404.632102,0.003258,0.005233,cluster0
1505,1315.032795,0.002801,0.000845,cluster0
1506,1318.288684,0.003007,0.002327,cluster0
1507,1378.074774,0.003179,0.004409,cluster0
1508,1383.514134,0.003503,0.009223,cluster0
1509,1382.115327,0.002955,0.003702,cluster0
1510,1450.20849,0.003585,0.010295,cluster0
1511,1396.690719,0.003198,0.005059,cluster0
1512,1444.100406,0.003553,0.008969,cluster0
1513,1327.97167,0.003628,0.00779,cluster0
1514,1395.465783,0.004081,0.012344,cluster1
1515,1446.14228,0.002694,0.00298,cluster0
1516,1356.700619,0.003604,0.006558,cluster0
1517,1432.933068,0.002475,0.001167,cluster0
1518,1400.589988,0.002753,0.002119,cluster0
1519,1370.720992,0.002898,0.002066,cluster0
1520,1391.66365,0.002834,0.003018,cluster0
1521,1446.726427,0.003223,0.004177,cluster0
1522,1481.779425,0.003636,0.013011,cluster1
1523,1426.814195,0.003648,0.007173,cluster0
1524,1463.50591,0.003009,0.004846,cluster0
1525,1463.037288,0.002814,0.001333,cluster0
1526,1405.844822,0.002517,0.000192,cluster0
1527,1384.617594,0.003009,0.003177,cluster0
1528,1409.237868,0.003686,0.010715,cluster0
1529,1406.286402,0.002273,0.000155,cluster0
1530,1382.750171,0.002115,0.000779,cluster0
1531,1458.490794,0.002337,0.001152,cluster0
1532,1435.565175,0.002375,0.000602,cluster0
1533,1417.015892,0.002014,0.000459,cluster0
1534,1475.804464,0.00192,0.000197,cluster0
1535,1432.127622,0.002616,0.002657,cluster0
1536,1353.871414,0.002454,0.00036,cluster0
1537,1458.048028,0.003438,0.007322,cluster0
1538,1394.67671,0.002343,0.000737,cluster0
1539,1426.726461,0.002211,0.000188,cluster0
1540,1359.332101,0.002088,0.000138,cluster0
1541,1373.54201,0.002511,0.001247,cluster0
1542,1328.941194,0.003058,0.003724,cluster0
1543,1426.801682,0.003041,0.00718,cluster0
1544,1354.238183,0.004148,0.016948,cluster1
1545,1375.808015,0.003941,0.014141,cluster1
1546,1366.775126,0.002908,0.003159,cluster0
1547,1320.762896,0.003369,0.004535,cluster0
1548,1288.060826,0.002759,0.001888,cluster0
1549,1361.483315,0.003301,0.005754,cluster0
1550,1388.715672,0.003507,0.00753,cluster0
1551,1394.935451,0.003736,0.011035,cluster0
1552,1322.342895,0.003851,0.01155,cluster0
1553,1365.491563,0.00386,0.008606,cluster0
1554,1360.390074,0.003923,0.013809,cluster1
1555,1429.234648,0.003386,0.005533,cluster0
1556,1368.50133,0.002707,0.004012,cluster0
1557,1322.664951,0.002107,0.000326,cluster0
1558,1314.395373,0.001808,0.000081,cluster0
1559,1323.509241,0.002607,0.002622,cluster0
1560,1362.523967,0.001787,0.000108,cluster0
1561,1312.80089,0.002158,0.000724,cluster0
1562,1315.047769,0.001933,0.000098,cluster0
1563,1378.970352,0.002128,0.001265,cluster0
1564,1296.987621,0.001918,0.000095,cluster0
1565,1319.394715,0.001946,0.000077,cluster0
1566,1407.78064,0.002421,0.002136,cluster0
1567,1319.506455,0.001994,0.001474,cluster0
1568,1325.986075,0.002613,0.002867,cluster0
1569,1303.529223,0.002236,0.000681,cluster0
1570,1352.089971,0.001917,0.000704,cluster0
1571,1242.170007,0.001938,0.000172,cluster0
1572,1289.63386,0.002657,0.004253,cluster0
1573,1289.426525,0.002028,0.00133,cluster0
1574,1266.828958,0.001842,0.000093,cluster0
1575,1283.405807,0.002044,0.000166,cluster0
1576,1299.237156,0.001856,0.000106,cluster0
1577,1263.973004,0.001975,0.000109,cluster0
1578,1267.211017,0.003189,0.006028,cluster0
1579,1279.159885,0.002482,0.000811,cluster0
1580,1328.526879,0.003056,0.009011,cluster0
1581,1280.777459,0.002219,0.001386,cluster0
1582,1287.123094,0.001962,0.000087,cluster0
1583,1261.38514,0.001997,0.000222,cluster0
1584,1235.663786,0.001973,0.000104,cluster0
1585,1223.158595,0.001811,0.000118,cluster0
1586,1245.061029,0.002336,0.00429,cluster0
1587,1173.0086,0.002354,0.000198,cluster0
1588,1288.291877,0.003598,0.006948,cluster0
1589,1169.978978,0.003159,0.006021,cluster0
1590,1247.452632,0.002541,0.000208,cluster0
1591,1204.692198,0.003048,0.002257,cluster0
1592,1228.195737,0.002396,0.001292,cluster0
1593,1187.068476,0.00264,0.001254,cluster0
1594,1207.029433,0.002708,0.00237,cluster0
1595,1171.914585,0.002841,0.002597,cluster0
1596,1211.952193,0.003204,0.002487,cluster0
1597,1214.90612,0.002394,0.000151,cluster0
1598,1249.673331,0.002672,0.003209,cluster0
1599,1222.98581,0.002673,0.002108,cluster0
1600,1166.469178,0.002061,0.000171,cluster0
1601,1195.059844,0.002152,0.000389,cluster0
1602,1221.26041,0.002008,0.000146,cluster0
1603,1258.061273,0.002231,0.000193,cluster0
1604,1180.271376,0.002523,0.000944,cluster0
1605,1128.417485,0.003021,0.004134,cluster0
1606,1176.501546,0.002795,0.003647,cluster0
1607,1153.371022,0.001947,0.000149,cluster0
1608,1171.085817,0.002199,0.000253,cluster0
1609,1116.817706,0.002231,0.000347,cluster0
1610,1132.353912,0.001962,0.000121,cluster0
1611,1186.303653,0.00244,0.000911,cluster0
1612,1164.624043,0.002568,0.000581,cluster0
1613,1196.619356,0.003588,0.007884,cluster0
1614,1221.866919,0.003185,0.002203,cluster0
1615,1093.107223,0.00284,0.002111,cluster0
1616,1094.402052,0.003116,0.004845,cluster0
1617,1163.298404,0.003506,0.008332,cluster0
1618,1164.702846,0.003031,0.004009,cluster0
1619,1073.841247,0.002714,0.002581,cluster0
1620,1061.0441,0.002503,0.001273,cluster0
1621,1181.502655,0.002924,0.002228,cluster0
1622,1164.8306,0.002778,0.002162,cluster0
1623,1139.427495,0.002673,0.000225,cluster0
1624,1125.975861,0.00293,0.003392,cluster0
1625,1009.225232,0.002726,0.0005,cluster0
1626,1053.932672,0.002282,0.004412,cluster0
1627,1113.034777,0.002012,0.000121,cluster0
1628,1089.057483,0.001959,0.000315,cluster0
1629,1111.177618,0.001963,0.000157,cluster0
1630,1127.504242,0.002164,0.000968,cluster0
1631,1081.235911,0.001971,0.001051,cluster0
1632,1143.122506,0.001855,0.000115,cluster0
1633,1177.107671,0.002,0.00012,cluster0
1634,1137.92015,0.001897,0.001372,cluster0
1635,1103.551674,0.001825,0.000112,cluster0
1636,1137.946391,0.002035,0.00041,cluster0
1637,1146.492881,0.0026,0.001348,cluster0
1638,1155.945268,0.002626,0.003908,cluster0
1639,1150.047989,0.002007,0.000229,cluster0
1640,1179.857473,0.001925,0.000101,cluster0
1641,1167.295218,0.001918,0.000122,cluster0
1642,1145.753745,0.001831,0.000103,cluster0
1643,1074.996476,0.001995,0.001037,cluster0
1644,1217.677336,0.001821,0.000117,cluster0
1645,1124.063587,0.002024,0.000096,cluster0
1646,1123.019702,0.001869,0.000093,cluster0
1647,1131.581628,0.002091,0.000116,cluster0
1648,1230.891373,0.001798,0.000099,cluster0
1649,1187.987202,0.002132,0.000226,cluster0
1650,1208.179951,0.00194,0.000113,cluster0
1651,1185.925745,0.002838,0.002622,cluster0
1652,1195.242155,0.002528,0.000181,cluster0
1653,1196.214438,0.002084,0.000126,cluster0
1654,1279.16691,0.002183,0.00013,cluster0
1655,1316.534798,0.002309,0.000171,cluster0
1656,1233.767954,0.002237,0.000151,cluster0
1657,1170.344782,0.002176,0.000176,cluster0
1658,1309.890486,0.002706,0.000424,cluster0
1659,1254.243617,0.002506,0.000291,cluster0
1660,1203.764835,0.002647,0.000299,cluster0
1661,1215.631572,0.002453,0.000195,cluster0
1662,1209.813695,0.002596,0.000806,cluster0
1663,1208.934015,0.002577,0.00022,cluster0
1664,1309.602415,0.002649,0.001295,cluster0
1665,1284.951647,0.002559,0.000265,cluster0
1666,1283.219439,0.00299,0.001017,cluster0
1667,1196.483435,0.002732,0.000255,cluster0
1668,1264.49187,0.002567,0.001397,cluster0
1669,1363.429615,0.002627,0.000358,cluster0
1670,1326.90723,0.002399,0.001416,cluster0
1671,1224.999038,0.002592,0.003017,cluster0
1672,1370.344438,0.002692,0.000224,cluster0
1673,1331.224494,0.002595,0.000647,cluster0
1674,1230.164333,0.002951,0.002955,cluster0
1675,1291.581976,0.002358,0.000519,cluster0
1676,1269.91977,0.002387,0.001002,cluster0
1677,1279.266727,0.002682,0.001632,cluster0
1678,1281.99102,0.002575,0.000239,cluster0
1679,1339.308522,0.002728,0.002526,cluster0
1680,1359.410242,0.002771,0.000925,cluster0
1681,1437.697338,0.002824,0.000782,cluster0
1682,1336.254221,0.002139,0.000178,cluster0
1683,1375.919084,0.002207,0.000152,cluster0
1684,1381.266385,0.002159,0.000138,cluster0
1685,1371.583301,0.00268,0.000311,cluster0
1686,1399.004033,0.002078,0.000153,cluster0
1687,1445.873804,0.00281,0.00117,cluster0
1688,1421.667281,0.002779,0.001272,cluster0
1689,1508.958336,0.002868,0.001728,cluster0
1690,1426.490978,0.00278,0.000745,cluster0
1691,1333.433975,0.002554,0.000598,cluster0
1692,1353.294607,0.00221,0.00017,cluster0
1693,1397.861168,0.002044,0.000156,cluster0
1694,1360.023152,0.002008,0.000132,cluster0
1695,1424.517625,0.00217,0.000178,cluster0
1696,1479.49447,0.002478,0.000592,cluster0
1697,1424.519942,0.002445,0.001112,cluster0
1698,1451.098214,0.003003,0.002071,cluster0
1699,1509.783578,0.002083,0.000185,cluster0
1700,1598.753906,0.002135,0.000152,cluster0
1701,1492.944179,0.001951,0.000172,cluster0
1702,1490.714285,0.002047,0.000147,cluster0
1703,1557.455637,0.001969,0.000216,cluster0
1704,1500.216841,0.002191,0.000241,cluster0
1705,1473.687619,0.001989,0.000149,cluster0
1706,1461.095821,0.00189,0.000145,cluster0
1707,1556.609461,0.002047,0.00017,cluster0
1708,1565.315825,0.002133,0.000174,cluster0
1709,1547.91149,0.00208,0.000281,cluster0
1710,1587.597699,0.001943,0.000166,cluster0
1711,1561.810828,0.002762,0.000988,cluster2
1712,1610.468302,0.002899,0.000863,cluster2
1713,1528.245903,0.002642,0.001498,cluster0
1714,1598.820065,0.002558,0.000236,cluster0
1715,1600.039227,0.002391,0.000214,cluster0
1716,1563.897766,0.002504,0.001876,cluster0
1717,1615.13869,0.002902,0.001831,cluster2
1718,1592.007617,0.002663,0.001091,cluster2
1719,1625.83967,0.002648,0.00205,cluster2
1720,1690.143245,0.002465,0.001124,cluster2
1721,1681.530754,0.002593,0.000206,cluster2
1722,1631.07802,0.002785,0.000332,cluster2
1723,1686.447261,0.003375,0.009044,cluster2
1724,1690.342424,0.003237,0.005075,cluster2
1725,1568.206773,0.002736,0.002403,cluster2
1726,1643.152028,0.002649,0.000518,cluster2
1727,1598.121537,0.002615,0.001191,cluster2
1728,1701.45035,0.003106,0.004064,cluster2
1729,1600.153602,0.002626,0.002522,cluster2
1730,1889.655827,0.003433,0.004728,cluster2
1731,1693.974848,0.002882,0.000445,cluster2
1732,1637.569447,0.002875,0.000381,cluster2
1733,1638.674295,0.002565,0.000307,cluster2
1734,1667.647836,0.002725,0.001914,cluster2
1735,1686.908525,0.002834,0.000455,cluster2
1736,1614.982743,0.002155,0.000168,cluster0
1737,1675.359372,0.003197,0.002941,cluster2
1738,1654.64414,0.003071,0.002563,cluster2
1739,1680.902963,0.002722,0.000551,cluster2
1740,1748.810571,0.003024,0.000883,cluster2
1741,1778.437925,0.00263,0.000486,cluster2
1742,1766.396531,0.002506,0.00047,cluster2
1743,1791.586209,0.002648,0.001281,cluster2
1744,1716.738838,0.002648,0.000308,cluster2
1745,1755.255637,0.003029,0.001013,cluster2
1746,1885.115401,0.003033,0.001527,cluster2
1747,1732.099974,0.00275,0.001482,cluster2
1748,1731.885347,0.002648,0.000273,cluster2
1749,1767.882981,0.002826,0.001534,cluster2
1750,1754.428623,0.002839,0.002156,cluster2
1751,1770.605406,0.00258,0.000421,cluster2
1752,1788.683016,0.002716,0.002703,cluster2
1753,1710.864047,0.002714,0.002016,cluster2
1754,1719.393552,0.00281,0.00142,cluster2
1755,1726.054523,0.002784,0.001424,cluster2
1756,1662.462263,0.002648,0.00055,cluster2
1757,1791.493985,0.003015,0.001116,cluster2
1758,1789.637967,0.00282,0.001522,cluster2
1759,1694.892947,0.002602,0.000472,cluster2
1760,1744.725969,0.002912,0.000437,cluster2
1761,1721.231588,0.002691,0.00048,cluster2
1762,1811.0839,0.002902,0.00207,cluster2
1763,1752.343153,0.002747,0.000353,cluster2
1764,1746.664098,0.00277,0.001619,cluster2
1765,1827.9058,0.002812,0.00138,cluster2
1766,1731.499889,0.00272,0.002348,cluster2
1767,1723.386038,0.002721,0.002137,cluster2
1768,1720.49883,0.002936,0.001556,cluster2
1769,1652.907085,0.002481,0.000247,cluster2
1770,1737.910499,0.002839,0.000389,cluster2
1771,1826.35645,0.002867,0.00058,cluster2
1772,1808.90197,0.002942,0.000417,cluster2
1773,1757.942999,0.003065,0.000598,cluster2
1774,1693.77282,0.002902,0.000674,cluster2
1775,1723.74207,0.002865,0.000652,cluster2
1776,1785.292538,0.0024,0.000204,cluster2
1777,1787.459549,0.0028,0.001672,cluster2
1778,1798.792395,0.003019,0.000684,cluster2
1779,1814.961062,0.002965,0.00152,cluster2
1780,1877.169735,0.002869,0.002234,cluster2
1781,1766.543798,0.002805,0.000336,cluster2
1782,1878.034645,0.002838,0.000417,cluster2
1783,1892.297253,0.00287,0.002031,cluster2
1784,1865.677948,0.002831,0.000646,cluster2
1785,1821.695585,0.002843,0.003487,cluster2
1786,1770.546607,0.003061,0.004987,cluster2
1787,1719.4105,0.002825,0.000892,cluster2
1788,1645.006242,0.002667,0.000284,cluster2
1789,1628.635398,0.002722,0.000261,cluster2
1790,1705.569789,0.002928,0.002015,cluster2
1791,1729.023984,0.00287,0.002086,cluster2
1792,1719.56028,0.003165,0.005251,cluster2
1793,1849.88096,0.00307,0.001722,cluster2
1794,1678.275314,0.002863,0.002203,cluster2
1795,1674.362873,0.002731,0.00159,cluster2
1796,1722.71686,0.002531,0.00096,cluster2
1797,1718.294528,0.003037,0.001389,cluster2
1798,1640.869716,0.003302,0.002981,cluster2
1799,1710.305943,0.003088,0.000577,cluster2
1800,1731.069581,0.003132,0.001618,cluster2
1801,1761.909889,0.002874,0.001295,cluster2
1802,1761.256215,0.002749,0.000277,cluster2
1803,1714.330169,0.002541,0.000885,cluster2
1804,1732.309908,0.002871,0.000789,cluster2
1805,1748.21705,0.002621,0.000352,cluster2
1806,1730.437425,0.002815,0.001793,cluster2
1807,1747.528357,0.002754,0.000568,cluster2
1808,1729.763327,0.002697,0.002357,cluster2
1809,1827.798484,0.00262,0.001758,cluster2
1810,1839.492937,0.002574,0.000268,cluster2
1811,1775.454176,0.002608,0.000369,cluster2
1812,1782.924039,0.002599,0.000763,cluster2
1813,1853.581898,0.003187,0.01098,cluster2
1814,1872.449186,0.002768,0.000329,cluster2
1815,1912.145878,0.002586,0.000953,cluster2
1816,1831.534844,0.002532,0.001101,cluster2
1817,1730.970665,0.002864,0.001336,cluster2
1818,1768.748356,0.003173,0.007755,cluster2
1819,1775.287954,0.002779,0.001694,cluster2
1820,1821.578177,0.00244,0.000855,cluster2
1821,1852.878712,0.002253,0.000181,cluster2
1822,1795.845441,0.002941,0.000536,cluster2
1823,1753.855314,0.003264,0.004107,cluster2
1824,1791.599937,0.003217,0.003512,cluster2
1825,1889.301679,0.00287,0.000481,cluster2
1826,1746.881546,0.002917,0.004384,cluster2
1827,1837.936807,0.00256,0.000255,cluster2
1828,1810.296387,0.002384,0.000203,cluster2
1829,1770.202197,0.002567,0.000305,cluster2
1830,1759.918031,0.002505,0.000758,cluster2
1831,1884.575347,0.00258,0.000509,cluster2
1832,1893.606017,0.002849,0.000497,cluster2
1833,1867.609063,0.003187,0.004289,cluster2
1834,1888.50539,0.003129,0.002233,cluster2
1835,1864.467025,0.002938,0.000408,cluster2
1836,1885.679173,0.002685,0.000849,cluster2
1837,1952.387489,0.002982,0.007594,cluster2
1838,1869.132318,0.002817,0.001793,cluster2
1839,1953.535788,0.002851,0.000702,cluster2
1840,1937.639463,0.002942,0.003705,cluster2
1841,1891.720036,0.002956,0.002686,cluster2
1842,1911.416538,0.003079,0.00287,cluster2
1843,1922.726249,0.002925,0.002195,cluster2
1844,1960.126676,0.002745,0.000869,cluster2
1845,1893.486227,0.003003,0.005164,cluster2
1846,1938.942469,0.003082,0.004404,cluster2
1847,1886.945302,0.002232,0.000878,cluster2
1848,1873.278438,0.002217,0.000214,cluster2
1849,1995.427771,0.002169,0.0002,cluster2
1850,1976.275842,0.002212,0.000182,cluster2
1851,2032.827503,0.002136,0.000202,cluster2
1852,2070.12655,0.002025,0.000243,cluster2
1853,1990.799439,0.002185,0.000259,cluster2
1854,2049.379789,0.002175,0.000437,cluster2
1855,2073.827431,0.002182,0.000218,cluster2
1856,2007.994051,0.002849,0.001659,cluster2
1857,2004.249837,0.002639,0.000784,cluster2
1858,2001.755907,0.002988,0.00337,cluster2
1859,2029.366849,0.002655,0.000257,cluster2
1860,2074.990546,0.002723,0.001058,cluster2
1861,1943.34253,0.002737,0.002335,cluster2
1862,2037.158142,0.002793,0.00179,cluster2
1863,2029.847893,0.003084,0.007312,cluster2
1864,2040.357498,0.002851,0.001847,cluster2
1865,1996.885901,0.003276,0.004443,cluster2
1866,2053.381509,0.002687,0.000566,cluster2
1867,2069.076705,0.002865,0.001587,cluster2
1868,2059.610016,0.002691,0.002144,cluster2
1869,2116.762341,0.00289,0.003325,cluster2
1870,2056.220009,0.002961,0.003433,cluster2
1871,2132.344563,0.00284,0.000658,cluster2
1872,2197.394825,0.003361,0.009214,cluster1
1873,2187.565644,0.003683,0.016103,cluster1
1874,2202.808507,0.002988,0.001773,cluster2
1875,2137.145081,0.002914,0.000754,cluster2
1876,2173.084333,0.003651,0.012843,cluster1
1877,2201.306133,0.00323,0.006561,cluster1
1878,2234.386444,0.003218,0.00916,cluster1
1879,2196.720946,0.002984,0.003531,cluster2
1880,2274.799138,0.003477,0.009556,cluster1
1881,2195.265209,0.003062,0.002585,cluster2
1882,2155.036172,0.003239,0.003122,cluster2
1883,2124.506852,0.0045,0.024637,cluster1
1884,2167.987101,0.003476,0.008618,cluster1
1885,2187.662086,0.003186,0.002815,cluster2
1886,2270.109805,0.003172,0.00384,cluster2
1887,2123.635093,0.003333,0.012029,cluster1
1888,2198.106592,0.003358,0.005266,cluster1
1889,2068.639698,0.003235,0.003255,cluster2
1890,2194.095118,0.002958,0.001815,cluster2
1891,2147.512664,0.00338,0.005349,cluster2
1892,2122.729852,0.003098,0.009375,cluster2
1893,2119.584773,0.002139,0.000243,cluster2
1894,2167.056724,0.00303,0.003038,cluster2
1895,2226.315293,0.003173,0.005237,cluster2
1896,2219.787937,0.003291,0.012447,cluster1
1897,2244.79437,0.003077,0.002877,cluster2
1898,2121.187292,0.00279,0.000638,cluster2
1899,2252.386489,0.002085,0.000237,cluster2
1900,2181.239109,0.00281,0.001083,cluster2
1901,2191.133766,0.003362,0.005728,cluster1
1902,2211.942763,0.003111,0.004879,cluster2
1903,2121.523128,0.003979,0.016649,cluster1
1904,2184.883132,0.003717,0.008507,cluster1
1905,2155.32711,0.003511,0.008439,cluster1
1906,2255.938069,0.003191,0.002708,cluster2
1907,2222.90656,0.002578,0.000933,cluster2
1908,2196.917902,0.002879,0.004524,cluster2
1909,2218.925624,0.002462,0.001047,cluster2
1910,2232.825715,0.002297,0.000353,cluster2
1911,2206.162882,0.003207,0.007801,cluster1
1912,2123.908099,0.003227,0.004931,cluster2
1913,2242.673341,0.003612,0.014563,cluster1
1914,2159.066493,0.003598,0.013967,cluster1
1915,2201.045207,0.003716,0.01131,cluster1
1916,2233.369163,0.003262,0.004749,cluster2
1917,2084.944669,0.003627,0.01364,cluster1
1918,2120.912472,0.004229,0.019715,cluster1
1919,2115.073217,0.004438,0.019506,cluster1
1920,2102.855439,0.00423,0.017147,cluster1
1921,2139.808557,0.003056,0.003373,cluster2
1922,2224.054051,0.003393,0.009815,cluster1
1923,2138.587733,0.002813,0.000927,cluster2
1924,2190.374707,0.00353,0.012477,cluster1
1925,2115.242345,0.003565,0.006914,cluster1
1926,2197.139197,0.003765,0.012305,cluster1
1927,2161.616722,0.00345,0.009924,cluster1
1928,2186.395888,0.004005,0.014738,cluster1
1929,2114.346863,0.00349,0.008907,cluster1
1930,2264.483467,0.003876,0.012796,cluster1
1931,2186.615456,0.003141,0.003679,cluster2
1932,2222.523199,0.003185,0.006257,cluster1
1933,2186.542406,0.0038,0.009797,cluster1
1934,2244.699732,0.003621,0.008963,cluster1
1935,2184.321678,0.003377,0.004491,cluster2
1936,2230.038981,0.003206,0.004966,cluster2
1937,2190.940366,0.003203,0.002983,cluster2
1938,2214.849536,0.003391,0.006159,cluster1
1939,2218.413924,0.003454,0.007889,cluster1
1940,2297.935638,0.003547,0.009222,cluster1
1941,2317.653307,0.003921,0.017345,cluster1
1942,2314.969187,0.003529,0.009027,cluster1
1943,2327.253722,0.003419,0.007682,cluster1
1944,2283.292353,0.003312,0.005005,cluster1
1945,2298.820636,0.003624,0.010336,cluster1
1946,2231.27747,0.003535,0.009413,cluster1
1947,2199.908631,0.003894,0.012,cluster1
1948,2118.68347,0.004457,0.021384,cluster1
1949,2243.05252,0.003531,0.007611,cluster1
1950,2233.391231,0.00388,0.011991,cluster1
1951,2227.206745,0.003439,0.004877,cluster1
1952,2200.191684,0.00329,0.003875,cluster2
1953,2179.905891,0.003465,0.005207,cluster1
1954,2161.518413,0.003349,0.00434,cluster2
1955,2289.818207,0.003694,0.008294,cluster1
1956,2230.360121,0.003723,0.007234,cluster1
1957,2233.754574,0.003741,0.009047,cluster1
1958,2190.959794,0.003843,0.011806,cluster1
1959,2214.515274,0.004345,0.022116,cluster1
1960,2215.486829,0.003721,0.014345,cluster1
1961,2150.940672,0.00453,0.024773,cluster1
1962,2255.880805,0.004188,0.020088,cluster1
1963,2286.503486,0.004519,0.023924,cluster1
1964,2245.274537,0.004073,0.016725,cluster1
1965,2284.798877,0.003549,0.012103,cluster1
1966,2245.358471,0.004121,0.012033,cluster1
1967,2153.939372,0.004809,0.027128,cluster1
1968,2270.904368,0.00424,0.017992,cluster1
1969,2308.676215,0.00343,0.004501,cluster1
1970,2289.546605,0.003503,0.004378,cluster1
1971,2274.133207,0.004108,0.013515,cluster1
1972,2289.846958,0.004229,0.018919,cluster1
1973,2260.12217,0.003694,0.009815,cluster1
1974,2207.918723,0.004815,0.025553,cluster1
1975,2197.337706,0.004782,0.028413,cluster1
1976,2139.684249,0.004521,0.020768,cluster1
1977,2164.099117,0.005274,0.034602,cluster1
1978,2139.712179,0.004585,0.026954,cluster1
1979,2176.081136,0.005388,0.036941,cluster1
1980,2196.415919,0.004293,0.018366,cluster1
1981,2234.925003,0.004538,0.024337,cluster1
1982,2194.178328,0.004473,0.024303,cluster1
1983,2240.210986,0.003512,0.00532,cluster1
1984,2277.449228,0.003259,0.006448,cluster1
1985,2249.456497,0.003336,0.00488,cluster1
1986,2217.786364,0.002677,0.00344,cluster2
1987,2215.017959,0.00395,0.013362,cluster1
1988,2197.682874,0.002678,0.000527,cluster2
1989,2268.661319,0.003926,0.014668,cluster1
1990,2393.028825,0.002977,0.008269,cluster1
1991,2223.754136,0.003554,0.014591,cluster1
1992,2357.644396,0.004205,0.020019,cluster1
1993,2273.317924,0.003809,0.012957,cluster1
1994,2215.084365,0.003318,0.006902,cluster1
1995,2260.754402,0.00349,0.01057,cluster1
1996,2196.396791,0.003871,0.014003,cluster1
1997,2203.355489,0.003807,0.011904,cluster1
1998,2258.209469,0.003215,0.005905,cluster1
1999,2243.100953,0.00326,0.008663,cluster1
2000,2270.133626,0.003602,0.011155,cluster1
2001,2319.257189,0.002325,0.001255,cluster2
2002,2290.322084,0.002888,0.003605,cluster2
2003,2331.522317,0.002664,0.003142,cluster2
2004,2281.074195,0.001997,0.000298,cluster2
2005,2278.131716,0.002086,0.000221,cluster2
2006,2228.294823,0.00206,0.001988,cluster2
2007,2231.32627,0.002373,0.003548,cluster2
2008,2251.165129,0.001979,0.000176,cluster2
2009,2320.319409,0.002302,0.000775,cluster2
2010,2215.660869,0.002145,0.000244,cluster2
2011,2192.950489,0.004052,0.015271,cluster1
2012,2160.138024,0.004849,0.025547,cluster1
2013,2265.316765,0.003466,0.009368,cluster1
2014,2209.835467,0.003309,0.005472,cluster1
2015,2255.295021,0.003658,0.01204,cluster1
2016,2250.497547,0.003915,0.014745,cluster1
2017,2250.236801,0.003279,0.006248,cluster1
2018,2204.931125,0.004256,0.022716,cluster1
2019,2278.575782,0.004,0.016262,cluster1
2020,2271.75816,0.003335,0.006304,cluster1
2021,2299.519303,0.003405,0.012743,cluster1
2022,2370.305115,0.002315,0.002146,cluster2
2023,2323.30885,0.003375,0.009085,cluster1
2024,2398.116668,0.002805,0.003397,cluster2
2025,2357.549852,0.002481,0.003573,cluster2
2026,2194.809588,0.003927,0.019405,cluster1
2027,2212.347525,0.003463,0.00931,cluster1
2028,2326.308826,0.003899,0.012867,cluster1
2029,2280.879331,0.003414,0.009234,cluster1
2030,2330.398218,0.003234,0.011977,cluster1
2031,2262.173435,0.004452,0.0308,cluster1
2032,2342.838875,0.003328,0.019366,cluster1
2033,2350.971305,0.002983,0.009125,cluster1
2034,2377.764687,0.002779,0.004826,cluster2
2035,2353.944822,0.002265,0.003894,cluster2
2036,2382.504289,0.002112,0.000817,cluster2
2037,2368.171313,0.00207,0.000227,cluster2
2038,2357.260679,0.002071,0.00023,cluster2
2039,2330.177532,0.002024,0.000401,cluster2
2040,2286.114897,0.002541,0.001543,cluster2
2041,2293.623892,0.002418,0.002302,cluster2
2042,2321.748051,0.003487,0.01063,cluster1
2043,2298.182507,0.004051,0.018168,cluster1
2044,2256.84003,0.003935,0.01038,cluster1
2045,2213.680285,0.003354,0.006395,cluster1
2046,2267.398108,0.003889,0.013865,cluster1
2047,2281.898926,0.003737,0.012602,cluster1
2048,2238.929151,0.003995,0.015684,cluster1
2049,2268.798879,0.004507,0.025058,cluster1
2050,2385.877834,0.002279,0.000509,cluster2
2051,2297.262229,0.003838,0.019233,cluster1
2052,2327.738858,0.004275,0.019103,cluster1
2053,2309.996171,0.004325,0.018027,cluster1
2054,2263.964687,0.002924,0.004434,cluster2
2055,2301.43315,0.003475,0.008286,cluster1
2056,2261.35213,0.004017,0.013488,cluster1
2057,2227.047183,0.003822,0.016808,cluster1
2058,2247.631856,0.003178,0.006956,cluster1
2059,2298.393248,0.00387,0.012266,cluster1
2060,2220.626184,0.004781,0.025217,cluster1
2061,2225.090911,0.005093,0.031329,cluster1
2062,2382.022569,0.004147,0.022557,cluster1
2063,2404.071788,0.003705,0.011781,cluster1
2064,2385.012132,0.004467,0.022324,cluster1
2065,2195.541239,0.004285,0.019868,cluster1
2066,2340.022907,0.003443,0.006428,cluster1
2067,2314.558691,0.003254,0.005007,cluster1
2068,2273.561873,0.004513,0.024113,cluster1
2069,2410.048555,0.003765,0.009926,cluster1
2070,2324.196595,0.003717,0.013896,cluster1
2071,2247.215283,0.004742,0.024915,cluster1
2072,2214.557086,0.004444,0.023186,cluster1
2073,2324.492049,0.003603,0.007436,cluster1
2074,2276.158084,0.003796,0.011748,cluster1
2075,2316.007412,0.00376,0.009291,cluster1
2076,2285.896433,0.004634,0.02582,cluster1
2077,2349.60846,0.004156,0.01904,cluster1
2078,2399.883393,0.004154,0.019284,cluster1
2079,2467.709297,0.00413,0.01876,cluster1
2080,2167.648741,0.005177,0.03802,cluster1
2081,2251.462094,0.004769,0.030042,cluster1
2082,2288.788561,0.004476,0.022651,cluster1
2083,2314.750845,0.004062,0.015447,cluster1
2084,2307.658355,0.004521,0.021166,cluster1
2085,2359.185678,0.003861,0.016344,cluster1
2086,2303.481499,0.00473,0.02373,cluster1
2087,2364.877333,0.003851,0.014414,cluster1
2088,2444.483473,0.004003,0.018659,cluster1
2089,2405.890125,0.003658,0.012608,cluster1
2090,2367.575005,0.003797,0.014869,cluster1
2091,2364.99321,0.003733,0.013073,cluster1
2092,2417.955791,0.004343,0.020546,cluster1
2093,2386.954586,0.004605,0.026862,cluster1
2094,2317.502855,0.004847,0.029619,cluster1
2095,2368.076467,0.004427,0.024463,cluster1
2096,2351.165956,0.003595,0.012472,cluster1
2097,2382.419349,0.00456,0.022266,cluster1
2098,2272.882842,0.004928,0.030818,cluster1
2099,2386.210238,0.003564,0.015009,cluster1
2100,2480.977828,0.002655,0.00288,cluster2
2101,2356.849557,0.003262,0.010547,cluster1
2102,2393.103801,0.00373,0.012344,cluster1
2103,2341.924004,0.002905,0.002115,cluster2
2104,2386.751519,0.003181,0.006683,cluster1
2105,2330.062847,0.003574,0.009152,cluster1
2106,2338.487052,0.003552,0.009786,cluster1
2107,2328.580097,0.003046,0.005049,cluster2
2108,2355.822004,0.003147,0.002131,cluster2
2109,2468.892243,0.002318,0.000289,cluster2
2110,2453.828102,0.002301,0.000976,cluster2
2111,2303.409956,0.003746,0.013792,cluster1
2112,2364.004422,0.00251,0.004362,cluster2
2113,2321.561866,0.002083,0.001455,cluster2
2114,2177.663924,0.005216,0.037545,cluster1
2115,2314.064292,0.004186,0.016184,cluster1
2116,2308.243754,0.003976,0.013189,cluster1
2117,2364.936753,0.003275,0.005522,cluster1
2118,2303.318732,0.003377,0.008639,cluster1
2119,2279.515902,0.003861,0.01138,cluster1
2120,2277.041668,0.003587,0.010757,cluster1
2121,2142.176999,0.005257,0.03797,cluster1
2122,2212.792169,0.004999,0.030217,cluster1
2123,2218.983809,0.003344,0.009011,cluster1
2124,2196.201275,0.00372,0.012938,cluster1
2125,2194.395593,0.003411,0.009726,cluster1
2126,2153.933328,0.003985,0.014591,cluster1
2127,2160.175408,0.003821,0.009829,cluster1
2128,2144.153588,0.003176,0.006711,cluster2
2129,2139.401605,0.003078,0.004559,cluster2
2130,2129.547272,0.003598,0.005774,cluster1
2131,2158.754206,0.003903,0.008571,cluster1
2132,2185.56691,0.003739,0.010734,cluster1
2133,2163.371324,0.003648,0.00647,cluster1
2134,2125.548736,0.003501,0.008003,cluster1
2135,2126.710593,0.003832,0.010099,cluster1
2136,2105.37852,0.004362,0.022234,cluster1
2137,2073.473308,0.003838,0.01542,cluster1
2138,2153.126443,0.003288,0.009616,cluster1
2139,2121.246311,0.002085,0.000745,cluster2
2140,2170.360021,0.002169,0.001032,cluster2
2141,2082.355747,0.002142,0.000201,cluster2
2142,2121.708183,0.002096,0.000315,cluster2
2143,2080.38999,0.003218,0.010402,cluster2
2144,1994.172399,0.00335,0.006041,cluster2
2145,2050.659549,0.003321,0.003512,cluster2
2146,1992.431538,0.003423,0.00775,cluster2
2147,1954.578189,0.003421,0.00823,cluster2
2148,1990.412311,0.00362,0.012203,cluster1
2149,1986.652193,0.003688,0.009827,cluster1
2150,1957.868666,0.004258,0.021996,cluster1
2151,1972.728411,0.003587,0.010202,cluster1
2152,2014.655805,0.003798,0.011983,cluster1
2153,1920.120884,0.003202,0.004147,cluster2
2154,1956.717566,0.003292,0.007649,cluster2
2155,1940.905062,0.003743,0.008025,cluster2
2156,1845.455489,0.002932,0.004676,cluster2
2157,1883.486889,0.002489,0.00147,cluster2
2158,1926.020295,0.003239,0.007336,cluster2
2159,1852.65315,0.00314,0.006512,cluster2
2160,1875.316434,0.003196,0.005926,cluster2
2161,1896.842069,0.003038,0.00499,cluster2
2162,1871.30509,0.004066,0.014357,cluster1
2163,1898.810378,0.004182,0.014044,cluster1
2164,1846.773053,0.003604,0.007983,cluster2
2165,1838.321505,0.003656,0.00771,cluster2
2166,1805.542548,0.004832,0.022585,cluster1
2167,1776.296133,0.003442,0.009236,cluster2
2168,1783.128137,0.00301,0.001978,cluster2
2169,1809.113871,0.003035,0.001581,cluster2
2170,1762.734933,0.003213,0.00622,cluster2
2171,1699.539967,0.003532,0.005933,cluster2
2172,1727.882259,0.003033,0.005774,cluster2
2173,1708.386668,0.002463,0.000229,cluster2
2174,1684.166674,0.003237,0.004941,cluster2
2175,1777.851467,0.003233,0.005029,cluster2
2176,1690.50263,0.002926,0.001576,cluster2
2177,1678.321333,0.002472,0.001265,cluster2
2178,1625.223645,0.00284,0.000897,cluster2
2179,1653.807475,0.003179,0.006283,cluster2
2180,1649.220954,0.003161,0.004454,cluster2
2181,1624.744801,0.002838,0.003053,cluster2
2182,1698.637602,0.002588,0.001552,cluster2
2183,1635.915208,0.002549,0.000551,cluster2
2184,1593.280363,0.001977,0.000244,cluster0
2185,1620.913757,0.00208,0.000193,cluster0
2186,1541.171401,0.003066,0.002518,cluster2
2187,1480.336144,0.002398,0.000352,cluster0
2188,1477.744917,0.002135,0.000479,cluster0
2189,1468.134935,0.002273,0.000257,cluster0
2190,1493.292822,0.002366,0.003377,cluster0
2191,1468.636748,0.002789,0.003741,cluster0
2192,1508.361245,0.003198,0.003249,cluster0
2193,1498.196879,0.002082,0.000418,cluster0
2194,1492.625396,0.00183,0.000124,cluster0
2195,1424.34825,0.001896,0.000124,cluster0
2196,1454.858554,0.002107,0.000977,cluster0
2197,1444.493826,0.002516,0.001159,cluster0
2198,1519.89355,0.003536,0.011134,cluster1
2199,1497.907952,0.003089,0.00485,cluster0
2200,1473.687342,0.00257,0.000704,cluster0
2201,1391.604149,0.002025,0.000169,cluster0
2202,1504.40111,0.002861,0.002171,cluster0
2203,1434.469905,0.003218,0.004955,cluster0
2204,1373.781077,0.002547,0.001321,cluster0
2205,1425.668455,0.003192,0.004346,cluster0
2206,1337.115314,0.003129,0.004556,cluster0
2207,1349.058348,0.002542,0.0022,cluster0
2208,1375.048065,0.00305,0.004823,cluster0
2209,1396.954312,0.00299,0.00178,cluster0
2210,1411.349999,0.003217,0.005149,cluster0
2211,1366.008965,0.003171,0.004812,cluster0
2212,1290.820206,0.002628,0.000246,cluster0
2213,1200.135855,0.002468,0.000267,cluster0
2214,1348.808926,0.003003,0.001598,cluster0
2215,1320.686737,0.003086,0.005415,cluster0
2216,1311.986111,0.002561,0.000943,cluster0
2217,1301.696804,0.002176,0.000658,cluster0
2218,1276.105341,0.001942,0.00015,cluster0
2219,1294.698637,0.002124,0.000193,cluster0
2220,1380.539053,0.002002,0.00014,cluster0
2221,1388.452479,0.001968,0.000128,cluster0
2222,1250.774333,0.001992,0.000136,cluster0
2223,1429.140271,0.002014,0.00016,cluster0
2224,1314.997709,0.001958,0.000122,cluster0
2225,1301.465575,0.001964,0.000116,cluster0
2226,1296.302692,0.002042,0.000137,cluster0
2227,1300.239228,0.002461,0.00214,cluster0
2228,1344.94541,0.002714,0.001826,cluster0
2229,1316.139476,0.003163,0.005147,cluster0
2230,1352.580213,0.002963,0.004972,cluster0
2231,1260.347325,0.002542,0.002604,cluster0
2232,1342.726674,0.002173,0.000962,cluster0
2233,1257.169485,0.002123,0.000135,cluster0
2234,1282.674227,0.002166,0.000156,cluster0
2235,1346.697733,0.002078,0.000118,cluster0
2236,1284.881671,0.002304,0.000209,cluster0
2237,1296.474674,0.002067,0.000112,cluster0
2238,1328.23374,0.00206,0.000654,cluster0
2239,1320.806608,0.002018,0.000369,cluster0
2240,1338.572206,0.001984,0.000131,cluster0
2241,1384.89683,0.001913,0.000298,cluster0
2242,1334.309316,0.001849,0.000151,cluster0
2243,1329.509874,0.002001,0.000323,cluster0
2244,1277.919989,0.001943,0.000127,cluster0
2245,1286.931455,0.002099,0.000158,cluster0
2246,1284.094776,0.001936,0.000352,cluster0
2247,1292.908051,0.001927,0.000091,cluster0
2248,1338.506976,0.002102,0.000503,cluster0
2249,1199.093038,0.001905,0.000212,cluster0
2250,1239.521154,0.002011,0.000121,cluster0
2251,1303.4322,0.002183,0.000251,cluster0
2252,1258.477456,0.002046,0.000195,cluster0
2253,1314.609228,0.002015,0.000112,cluster0
2254,1276.866018,0.001888,0.000142,cluster0
2255,1262.987632,0.002024,0.000116,cluster0
2256,1331.614868,0.003142,0.005981,cluster0
2257,1291.068312,0.002065,0.000151,cluster0
2258,1349.357578,0.001949,0.000113,cluster0
2259,1323.096208,0.002327,0.001053,cluster0
2260,1256.943054,0.002133,0.000128,cluster0
2261,1335.194859,0.002125,0.000111,cluster0
2262,1267.69637,0.002751,0.001629,cluster0
2263,1358.146184,0.002457,0.001738,cluster0
2264,1291.490942,0.002253,0.001913,cluster0
2265,1314.68628,0.002024,0.000104,cluster0
2266,1274.432061,0.001989,0.000773,cluster0
2267,1290.61766,0.001877,0.000127,cluster0
2268,1284.657193,0.002081,0.000109,cluster0
2269,1302.541853,0.0021,0.000116,cluster0
2270,1244.144473,0.0028,0.001166,cluster0
2271,1264.644591,0.003278,0.006647,cluster0
2272,1306.879234,0.002072,0.000118,cluster0
2273,1263.321461,0.002286,0.00122,cluster0
2274,1263.768179,0.002195,0.000136,cluster0
2275,1333.194533,0.002212,0.000137,cluster0
2276,1316.361263,0.002053,0.000134,cluster0
2277,1310.845435,0.002018,0.000214,cluster0
2278,1262.834834,0.002316,0.000835,cluster0
2279,1245.725293,0.002112,0.000308,cluster0
2280,1262.033783,0.002032,0.000109,cluster0
2281,1277.548714,0.001861,0.000106,cluster0
2282,1231.894636,0.002193,0.00013,cluster0
2283,1291.174875,0.002151,0.00014,cluster0
2284,1263.361987,0.002563,0.001893,cluster0
2285,1241.895516,0.00253,0.00433,cluster0
2286,1264.335267,0.001991,0.000706,cluster0
2287,1226.261472,0.001977,0.000222,cluster0
2288,1303.490314,0.002147,0.00087,cluster0
2289,1236.32405,0.001921,0.000097,cluster0
2290,1245.387057,0.001835,0.000135,cluster0
2291,1222.276234,0.002052,0.000194,cluster0
2292,1199.719326,0.001974,0.000151,cluster0
2293,1190.547665,0.001958,0.000113,cluster0
2294,1195.159502,0.001816,0.000083,cluster0
2295,1189.462687,0.002057,0.000113,cluster0
2296,1281.253056,0.002142,0.000178,cluster0
2297,1191.003686,0.001946,0.000347,cluster0
2298,1172.103229,0.002136,0.000287,cluster0
2299,1171.326701,0.001779,0.000078,cluster0
2300,1264.113953,0.002971,0.002586,cluster0
2301,1226.208052,0.002942,0.002548,cluster0
2302,1215.019856,0.003053,0.004686,cluster0
2303,1218.365132,0.002782,0.001992,cluster0
2304,1190.1945,0.002122,0.000112,cluster0
2305,1192.304988,0.002438,0.001693,cluster0
2306,1164.01935,0.002159,0.000138,cluster0
2307,1199.578797,0.003153,0.004189,cluster0
2308,1234.514926,0.002402,0.000256,cluster0
2309,1178.3486,0.002391,0.00018,cluster0
2310,1205.987079,0.002197,0.000682,cluster0
2311,1268.052411,0.002117,0.000162,cluster0
2312,1214.766889,0.002205,0.000168,cluster0
2313,1164.542701,0.002005,0.000324,cluster0
2314,1185.55152,0.00206,0.000156,cluster0
2315,1189.650155,0.002361,0.000157,cluster0
2316,1192.835403,0.002669,0.003761,cluster0
2317,1176.909336,0.002489,0.000472,cluster0
2318,1249.580294,0.002506,0.002747,cluster0
2319,1220.655437,0.002083,0.000404,cluster0
2320,1107.767511,0.002019,0.000121,cluster0
2321,1156.68464,0.00227,0.000156,cluster0
2322,1157.174892,0.002125,0.001148,cluster0
2323,1206.407187,0.002654,0.002258,cluster0
2324,1124.779995,0.00228,0.000447,cluster0
2325,1144.61498,0.002167,0.000255,cluster0
2326,1122.495012,0.002235,0.000202,cluster0
2327,1190.601404,0.00223,0.001164,cluster0
2328,1200.9964,0.002221,0.002842,cluster0
2329,1160.924439,0.002852,0.003121,cluster0
2330,1185.69999,0.002401,0.000782,cluster0
2331,1137.658692,0.002428,0.00078,cluster0
2332,1149.451181,0.001847,0.000079,cluster0
2333,1101.358384,0.002152,0.00061,cluster0
2334,1093.042303,0.002145,0.000104,cluster0
2335,1101.278255,0.002092,0.000491,cluster0
2336,1072.068709,0.002167,0.000172,cluster0
2337,1083.476568,0.001914,0.000114,cluster0
2338,1044.935559,0.002392,0.001871,cluster0
2339,1071.096212,0.002114,0.001004,cluster0
2340,1127.098878,0.001917,0.000104,cluster0
2341,1153.040616,0.002009,0.000117,cluster0
2342,1094.543218,0.002055,0.000103,cluster0
2343,1121.672995,0.002076,0.00011,cluster0
2344,1044.971879,0.002259,0.003383,cluster0
2345,1204.388967,0.002106,0.000135,cluster0
2346,1122.987773,0.002097,0.000097,cluster0
2347,1104.58009,0.002356,0.000157,cluster0
2348,1124.398786,0.002329,0.000247,cluster0
2349,1126.020657,0.002148,0.000132,cluster0
2350,1143.831588,0.002261,0.000154,cluster0
2351,1116.521366,0.002381,0.000566,cluster0
2352,1110.103727,0.002579,0.000187,cluster0
2353,1049.712955,0.002986,0.004265,cluster0
2354,1073.613369,0.002834,0.00049,cluster0
2355,1136.430496,0.002762,0.001167,cluster0
2356,1172.976849,0.002329,0.000176,cluster0
2357,1120.822412,0.002394,0.000173,cluster0
2358,1094.41672,0.002241,0.000175,cluster0
2359,1125.645519,0.002644,0.001249,cluster0
2360,1126.535569,0.002712,0.000285,cluster0
2361,1153.174083,0.002475,0.001103,cluster0
2362,1157.096817,0.002158,0.000148,cluster0
2363,1138.196262,0.002189,0.000217,cluster0
2364,1106.501155,0.002464,0.002318,cluster0
2365,1192.309008,0.002329,0.000149,cluster0
2366,1129.992212,0.002478,0.000671,cluster0
2367,1016.083411,0.002655,0.000167,cluster0
2368,1083.70986,0.002681,0.002134,cluster0
2369,1064.624579,0.002622,0.002689,cluster0
2370,1104.228326,0.002937,0.001513,cluster0
2371,1260.760835,0.002551,0.000396,cluster0
2372,1190.935062,0.002479,0.000227,cluster0
2373,1168.664462,0.002644,0.00302,cluster0
2374,1227.13662,0.002903,0.001551,cluster0
2375,1209.86151,0.003007,0.002655,cluster0
2376,1218.428849,0.002858,0.003317,cluster0
2377,1218.712891,0.002698,0.000419,cluster0
2378,1215.678169,0.002604,0.000806,cluster0
2379,1211.781574,0.002793,0.004116,cluster0
2380,1252.169579,0.002109,0.000134,cluster0
2381,1211.725982,0.002472,0.000159,cluster0
2382,1198.691366,0.002861,0.00166,cluster0
2383,1250.695913,0.002838,0.001033,cluster0
2384,1229.346613,0.00302,0.002248,cluster0
2385,1263.070078,0.002647,0.002466,cluster0
2386,1177.20849,0.002827,0.001291,cluster0
2387,1157.333762,0.002727,0.001607,cluster0
2388,1186.981759,0.00261,0.000503,cluster0
2389,1222.85359,0.002717,0.001003,cluster0
2390,1264.656676,0.002761,0.000226,cluster0
2391,1205.713146,0.002603,0.000176,cluster0
2392,1310.620424,0.002416,0.000221,cluster0
2393,1332.020523,0.002923,0.002334,cluster0
2394,1276.199919,0.002491,0.000185,cluster0
2395,1217.4653,0.002537,0.000346,cluster0
2396,1229.819666,0.002336,0.000218,cluster0
2397,1266.310211,0.00269,0.001174,cluster0
2398,1187.37666,0.002374,0.000182,cluster0
2399,1257.312645,0.002586,0.000237,cluster0
2400,1291.846064,0.002799,0.001928,cluster0
2401,1251.826588,0.002485,0.001008,cluster0
2402,1378.486519,0.002782,0.001802,cluster0
2403,1447.98171,0.00277,0.000277,cluster0
2404,1385.240965,0.003015,0.002841,cluster0
2405,1307.045574,0.002267,0.00035,cluster0
2406,1373.088759,0.002747,0.001406,cluster0
2407,1313.651976,0.002238,0.000737,cluster0
2408,1337.011539,0.002087,0.000401,cluster0
2409,1351.791384,0.001914,0.000098,cluster0
2410,1395.494433,0.002132,0.000131,cluster0
2411,1356.234991,0.002148,0.000173,cluster0
2412,1377.19435,0.00287,0.004405,cluster0
2413,1343.780314,0.002417,0.001388,cluster0
2414,1462.338607,0.002314,0.000745,cluster0
2415,1376.91901,0.002315,0.000215,cluster0
2416,1421.719827,0.002909,0.005205,cluster0
2417,1455.676135,0.002326,0.000165,cluster0
2418,1451.126682,0.00215,0.000158,cluster0
2419,1400.029022,0.002503,0.000932,cluster0
2420,1405.729052,0.002313,0.000182,cluster0
2421,1460.236254,0.002638,0.000225,cluster0
2422,1459.844263,0.002468,0.000315,cluster0
2423,1554.886637,0.002957,0.004285,cluster2
2424,1464.976972,0.002368,0.000337,cluster0
2425,1432.969611,0.002131,0.000152,cluster0
2426,1408.519451,0.002042,0.001008,cluster0
2427,1450.217116,0.001943,0.000133,cluster0
2428,1500.328359,0.002148,0.001589,cluster0
2429,1535.662967,0.001963,0.000173,cluster0
2430,1456.597339,0.002457,0.000166,cluster0
2431,1454.102681,0.002497,0.000232,cluster0
2432,1387.032927,0.002402,0.000692,cluster0
2433,1547.31931,0.002499,0.000615,cluster0
2434,1483.053798,0.002602,0.001391,cluster0
2435,1510.650384,0.002904,0.000436,cluster0
2436,1582.767097,0.003024,0.00345,cluster2
2437,1468.971874,0.002707,0.001486,cluster0
2438,1566.303631,0.002269,0.000192,cluster0
2439,1527.177719,0.002336,0.001912,cluster0
2440,1571.431923,0.002371,0.000428,cluster0
2441,1484.673287,0.001995,0.000138,cluster0
2442,1619.365227,0.002228,0.000869,cluster0
2443,1595.280044,0.002576,0.003127,cluster2
2444,1560.795359,0.0023,0.000177,cluster0
2445,1555.299946,0.002557,0.000282,cluster0
2446,1692.726784,0.002397,0.000742,cluster2
2447,1622.240936,0.003433,0.007904,cluster2
2448,1580.36618,0.002627,0.001396,cluster2
2449,1628.941252,0.002018,0.000184,cluster0
2450,1647.789456,0.002126,0.00024,cluster0
2451,1649.098097,0.002076,0.000167,cluster0
2452,1606.834041,0.001871,0.000133,cluster0
2453,1615.006645,0.001969,0.000147,cluster0
2454,1565.115499,0.002314,0.000468,cluster0
2455,1537.944369,0.002571,0.001068,cluster0
2456,1523.26139,0.002075,0.000171,cluster0
2457,1548.562789,0.001902,0.00018,cluster0
2458,1588.34447,0.002144,0.000204,cluster0
2459,1537.532371,0.002449,0.000304,cluster0
2460,1778.011301,0.002527,0.001632,cluster2
2461,1681.66619,0.002273,0.000253,cluster0
2462,1788.241104,0.00196,0.000191,cluster2
2463,1646.027181,0.001865,0.000131,cluster0
2464,1579.761504,0.002036,0.000143,cluster0
2465,1666.091874,0.002102,0.000158,cluster0
2466,1617.595478,0.002029,0.000155,cluster0
2467,1590.864127,0.001961,0.000217,cluster0
2468,1644.502889,0.002077,0.000172,cluster0
2469,1665.422378,0.002372,0.00059,cluster0
2470,1700.174434,0.002867,0.002951,cluster2
2471,1669.911012,0.002657,0.000534,cluster2
2472,1692.910322,0.002971,0.000358,cluster2
2473,1658.857504,0.003119,0.002225,cluster2
2474,1732.391396,0.002284,0.000161,cluster2
2475,1671.405762,0.002348,0.000197,cluster0
2476,1657.498048,0.00209,0.000185,cluster0
2477,1698.764754,0.001809,0.000156,cluster0
2478,1707.986255,0.001961,0.000171,cluster0
2479,1742.195098,0.002176,0.000171,cluster0
2480,1732.627895,0.002485,0.000237,cluster2
2481,1704.466799,0.002821,0.001609,cluster2
2482,1803.237433,0.002708,0.002828,cluster2
2483,1824.509003,0.002508,0.001609,cluster2
2484,1715.707868,0.00233,0.000218,cluster2
2485,1733.392797,0.00229,0.000468,cluster2
2486,1696.304141,0.002691,0.000319,cluster2
2487,1727.513783,0.002638,0.002375,cluster2
2488,1690.183826,0.002252,0.000163,cluster0
2489,1735.271252,0.001911,0.000199,cluster0
2490,1743.919757,0.002576,0.000593,cluster2
2491,1743.956523,0.002858,0.001599,cluster2
2492,1798.917577,0.002661,0.001171,cluster2
2493,1758.104688,0.002734,0.003031,cluster2
2494,1761.443683,0.002727,0.000329,cluster2
2495,1817.320429,0.002687,0.000262,cluster2
2496,1731.326751,0.002707,0.001428,cluster2
2497,1727.885721,0.002854,0.000506,cluster2
2498,1705.31627,0.002357,0.000176,cluster2
2499,1732.958131,0.00259,0.000874,cluster2
2500,1753.151598,0.002706,0.001203,cluster2
2501,1757.65125,0.002219,0.000485,cluster2
2502,1758.872317,0.001968,0.000184,cluster2
2503,1754.086266,0.002378,0.000692,cluster2
2504,1841.295887,0.002433,0.001265,cluster2
2505,1806.368001,0.002645,0.000359,cluster2
2506,1834.941036,0.002882,0.001309,cluster2
2507,1805.646689,0.002788,0.0012,cluster2
2508,1788.319502,0.002517,0.000962,cluster2
2509,1759.498841,0.002946,0.001554,cluster2
2510,1771.099953,0.002507,0.000932,cluster2
2511,1874.878954,0.002488,0.000584,cluster2
2512,1856.975539,0.002558,0.001271,cluster2
2513,1886.12839,0.002715,0.001245,cluster2
2514,1802.557054,0.002401,0.000346,cluster2
2515,1821.373628,0.002546,0.001123,cluster2
2516,1865.930377,0.003215,0.00509,cluster2
2517,1829.625193,0.002965,0.001947,cluster2
2518,1737.184317,0.002105,0.000179,cluster0
2519,1688.618318,0.002108,0.000191,cluster0
2520,1651.345043,0.002464,0.000598,cluster2
2521,1768.05177,0.002656,0.001249,cluster2
2522,1771.131564,0.002741,0.004765,cluster2
2523,1662.771901,0.002353,0.000181,cluster0
2524,1645.921595,0.002462,0.001517,cluster2
2525,1699.771916,0.002265,0.000221,cluster0
2526,1621.667126,0.002461,0.000835,cluster0
2527,1659.363646,0.002826,0.001116,cluster2
2528,1676.137427,0.002849,0.002328,cluster2
2529,1702.65297,0.002888,0.001738,cluster2
2530,1680.424326,0.002686,0.003222,cluster2
2531,1659.774797,0.002563,0.000278,cluster2
2532,1675.373484,0.00283,0.002976,cluster2
2533,1747.229065,0.002705,0.000737,cluster2
2534,1730.380111,0.002493,0.000594,cluster2
2535,1764.950165,0.002834,0.000807,cluster2
2536,1751.260372,0.002587,0.00027,cluster2
2537,1725.121448,0.002579,0.000261,cluster2
2538,1769.749247,0.002631,0.000261,cluster2
2539,1806.883245,0.002762,0.001002,cluster2
2540,1767.989165,0.002696,0.000672,cluster2
2541,1693.405626,0.002898,0.000646,cluster2
2542,1764.305891,0.002872,0.001454,cluster2
2543,1727.126157,0.00259,0.000251,cluster2
2544,1704.066713,0.002532,0.000721,cluster2
2545,1735.802776,0.002568,0.001168,cluster2
2546,1764.788336,0.002717,0.000485,cluster2
2547,1736.429293,0.002712,0.000584,cluster2
2548,1796.561281,0.002544,0.000317,cluster2
2549,1833.371999,0.002569,0.001433,cluster2
2550,1933.548839,0.002667,0.001622,cluster2
2551,1887.808895,0.00242,0.000987,cluster2
2552,1747.879544,0.002286,0.002146,cluster2
2553,1782.66016,0.002121,0.0003,cluster2
2554,1765.384612,0.002153,0.000311,cluster2
2555,1794.497107,0.002899,0.003411,cluster2
2556,1789.347376,0.002248,0.001859,cluster2
2557,1835.378432,0.002718,0.000839,cluster2
2558,1876.349401,0.002864,0.001825,cluster2
2559,1858.959989,0.002929,0.0035,cluster2
2560,1832.718176,0.002843,0.000774,cluster2
2561,1779.676921,0.003489,0.011092,cluster2
2562,1864.704236,0.003046,0.001667,cluster2
2563,1852.907798,0.002916,0.002927,cluster2
2564,1871.524897,0.002869,0.000473,cluster2
2565,1833.123278,0.002822,0.000827,cluster2
2566,1808.19186,0.002344,0.00032,cluster2
2567,1856.674082,0.002339,0.000214,cluster2
2568,1833.294382,0.002229,0.000234,cluster2
2569,1914.597735,0.002054,0.000319,cluster2
2570,1869.356799,0.002708,0.001535,cluster2
2571,1854.562803,0.002804,0.001463,cluster2
2572,1936.4062,0.002659,0.001331,cluster2
2573,1956.460107,0.002931,0.000821,cluster2
2574,1877.640708,0.00282,0.000841,cluster2
2575,1844.451529,0.002755,0.000927,cluster2
2576,1836.084923,0.002706,0.002225,cluster2
2577,1925.933009,0.003114,0.00251,cluster2
2578,1902.789286,0.003052,0.003002,cluster2
2579,1870.124575,0.002687,0.002171,cluster2
2580,1959.379895,0.002854,0.004554,cluster2
2581,1933.010261,0.003026,0.003792,cluster2
2582,1948.249665,0.003271,0.00473,cluster2
2583,1923.462537,0.002596,0.002322,cluster2
2584,1898.626056,0.002492,0.001243,cluster2
2585,2030.007274,0.002883,0.002198,cluster2
2586,2058.87006,0.002218,0.00019,cluster2
2587,2038.967254,0.002157,0.000225,cluster2
2588,2038.081479,0.002064,0.000558,cluster2
2589,2010.106479,0.00323,0.004386,cluster2
2590,2053.803164,0.002609,0.000812,cluster2
2591,2104.11025,0.00272,0.001645,cluster2
2592,2045.658304,0.002115,0.000226,cluster2
2593,2058.661443,0.002125,0.000185,cluster2
2594,2132.010925,0.002315,0.000799,cluster2
2595,2138.250808,0.002354,0.001646,cluster2
2596,2140.154778,0.002697,0.00135,cluster2
2597,2108.631789,0.002396,0.001689,cluster2
2598,2158.254397,0.002486,0.001203,cluster2
2599,2186.29308,0.002344,0.001051,cluster2
2600,2168.095775,0.002115,0.000291,cluster2
2601,2147.175633,0.002279,0.002316,cluster2
2602,2346.589667,0.002427,0.002117,cluster2
2603,2285.943361,0.002149,0.001213,cluster2
2604,2269.699054,0.002548,0.002475,cluster2
2605,2160.694012,0.003132,0.002957,cluster2
2606,2203.984398,0.002809,0.002398,cluster2
2607,2227.824282,0.002285,0.003534,cluster2
2608,2113.697388,0.002044,0.000207,cluster2
2609,2166.112029,0.0024,0.000318,cluster2
2610,2237.327035,0.002186,0.001205,cluster2
2611,2227.787617,0.001994,0.000516,cluster2
2612,2261.522394,0.002226,0.00266,cluster2
2613,2212.995199,0.002756,0.002368,cluster2
2614,2114.979071,0.002081,0.00029,cluster2
2615,2195.40862,0.002964,0.003632,cluster2
2616,2174.557315,0.003414,0.007662,cluster1
2617,2176.469414,0.003066,0.001901,cluster2
2618,2238.737082,0.002695,0.00166,cluster2
2619,2247.049185,0.003547,0.006655,cluster1
2620,2266.551418,0.003166,0.001754,cluster2
2621,2250.003932,0.003564,0.008394,cluster1
2622,2183.436472,0.002558,0.001542,cluster2
2623,2233.787349,0.003002,0.005911,cluster2
2624,2241.876809,0.003202,0.005599,cluster1
2625,2264.731285,0.003165,0.004341,cluster2
2626,2403.546381,0.002034,0.000586,cluster2
2627,2375.326624,0.003221,0.009466,cluster1
2628,2269.590188,0.003464,0.00768,cluster1
2629,2464.917001,0.003481,0.005117,cluster1
2630,2353.07664,0.003583,0.008707,cluster1
2631,2353.598966,0.003342,0.006104,cluster1
2632,2247.170135,0.00342,0.007629,cluster1
2633,2255.059297,0.003312,0.004398,cluster1
2634,2249.0039,0.003667,0.015053,cluster1
2635,2236.071345,0.003352,0.007203,cluster1
2636,2162.246145,0.003779,0.010119,cluster1
2637,2256.075207,0.003699,0.008149,cluster1
2638,2277.526488,0.003012,0.003175,cluster2
2639,2203.330401,0.003553,0.00842,cluster1
2640,2239.586258,0.003147,0.005454,cluster2
2641,2248.93564,0.004165,0.023478,cluster1
2642,2319.835345,0.003919,0.016054,cluster1
2643,2291.985228,0.004141,0.020159,cluster1
2644,2289.811467,0.00382,0.013275,cluster1
2645,2213.678857,0.003916,0.016754,cluster1
2646,2280.244741,0.003868,0.022238,cluster1
2647,2278.475298,0.003511,0.007189,cluster1
2648,2262.152478,0.003176,0.008507,cluster1
2649,2293.360493,0.003207,0.006043,cluster1
2650,2378.103455,0.002473,0.001271,cluster2
2651,2330.998939,0.002278,0.001034,cluster2
2652,2365.060754,0.002145,0.000267,cluster2
2653,2264.30682,0.002231,0.000866,cluster2
2654,2299.513617,0.003501,0.012531,cluster1
2655,2040.545457,0.002118,0.000271,cluster2
2656,2366.381741,0.002343,0.001721,cluster2
2657,2239.091409,0.003805,0.013141,cluster1
2658,2243.904461,0.003999,0.012381,cluster1
2659,2194.140895,0.003824,0.013925,cluster1
2660,2302.964117,0.004064,0.013571,cluster1
2661,2277.144654,0.003809,0.009773,cluster1
2662,2293.578045,0.004455,0.023622,cluster1
2663,2267.610532,0.003396,0.007438,cluster1
2664,2297.577176,0.003181,0.00377,cluster2
2665,2375.215719,0.002221,0.000472,cluster2
2666,2307.373706,0.00288,0.004535,cluster2
2667,2248.096433,0.003305,0.008294,cluster1
2668,2232.458409,0.003908,0.010212,cluster1
2669,2152.250078,0.003508,0.006803,cluster1
2670,2244.696413,0.003548,0.009129,cluster1
2671,2390.698028,0.002104,0.000235,cluster2
2672,2336.153529,0.002264,0.001564,cluster2
2673,2297.960117,0.003611,0.018523,cluster1
2674,2226.067432,0.004422,0.02461,cluster1
2675,2295.648715,0.003535,0.010914,cluster1
2676,2265.797207,0.003582,0.014337,cluster1
2677,2182.226888,0.003796,0.016549,cluster1
2678,2179.880929,0.004668,0.027857,cluster1
2679,2288.029235,0.004001,0.013727,cluster1
2680,2402.529149,0.00383,0.012718,cluster1
2681,2325.880228,0.003982,0.018965,cluster1
2682,2351.549169,0.003612,0.008006,cluster1
2683,2326.0588,0.003804,0.010315,cluster1
2684,2287.864635,0.003716,0.012371,cluster1
2685,2244.474156,0.004075,0.015333,cluster1
2686,2306.279377,0.003846,0.012063,cluster1
2687,2122.65698,0.005733,0.044645,cluster1
2688,2266.606132,0.005784,0.0498,cluster1
2689,2247.047619,0.004272,0.021039,cluster1
2690,2353.198318,0.003349,0.014079,cluster1
2691,2281.930977,0.003667,0.014741,cluster1
2692,2173.197581,0.003828,0.012037,cluster1
2693,2194.540711,0.004625,0.025635,cluster1
2694,2216.642816,0.004459,0.024139,cluster1
2695,2145.845535,0.004723,0.026058,cluster1
2696,2240.505549,0.002892,0.005559,cluster2
2697,2266.691255,0.003617,0.008776,cluster1
2698,2221.148768,0.003132,0.003404,cluster2
2699,2229.494311,0.004063,0.016628,cluster1
2700,2223.868586,0.00416,0.021285,cluster1
2701,2218.409716,0.003993,0.016952,cluster1
2702,2199.165197,0.004352,0.019784,cluster1
2703,2279.575496,0.004204,0.024143,cluster1
2704,2289.114113,0.003419,0.010824,cluster1
2705,2248.064246,0.004314,0.021724,cluster1
2706,2156.672632,0.004681,0.02464,cluster1
2707,2223.367252,0.004061,0.014569,cluster1
2708,2292.765685,0.004307,0.019833,cluster1
2709,2186.177443,0.005141,0.03739,cluster1
2710,2227.922282,0.005117,0.034022,cluster1
2711,2261.771966,0.005088,0.035989,cluster1
2712,2277.501287,0.004407,0.021857,cluster1
2713,2224.570471,0.004726,0.031077,cluster1
2714,2215.673302,0.005144,0.038455,cluster1
2715,2158.333125,0.004666,0.029152,cluster1
2716,2211.769474,0.004171,0.01789,cluster1
2717,2281.199013,0.00384,0.010447,cluster1
2718,2309.52391,0.004038,0.015229,cluster1
2719,2243.73568,0.004645,0.024425,cluster1
2720,2265.666939,0.003547,0.010212,cluster1
2721,2588.157214,0.002312,0.001779,cluster2
2722,2420.249443,0.002698,0.004516,cluster2
2723,2277.434659,0.002994,0.008348,cluster1
2724,2376.584626,0.002101,0.000703,cluster2
2725,2299.836336,0.003238,0.0061,cluster1
2726,2395.711018,0.002241,0.001539,cluster2
2727,2313.581428,0.003125,0.006557,cluster1
2728,2258.037759,0.002883,0.004432,cluster2
2729,2179.595486,0.004917,0.032181,cluster1
2730,2290.483349,0.003537,0.00623,cluster1
2731,2240.911682,0.002836,0.004596,cluster2
2732,2229.783164,0.003992,0.015677,cluster1
2733,2233.389011,0.003059,0.007034,cluster2
2734,2153.882981,0.004903,0.025478,cluster1
2735,2246.293692,0.00422,0.018668,cluster1
2736,2120.420494,0.00477,0.02604,cluster1
2737,2218.230316,0.004915,0.028846,cluster1
2738,2213.570031,0.004652,0.02575,cluster1
2739,2270.889306,0.00289,0.004319,cluster2
2740,2299.175334,0.004044,0.019461,cluster1
2741,2208.157376,0.003674,0.011508,cluster1
2742,2204.932888,0.004084,0.011885,cluster1
2743,2191.477421,0.004991,0.029289,cluster1
2744,2263.327305,0.004247,0.017054,cluster1
2745,2351.361781,0.003386,0.009571,cluster1
2746,2310.20912,0.002451,0.00166,cluster2
2747,2316.740215,0.00233,0.00055,cluster2
2748,2356.047116,0.002275,0.000923,cluster2
2749,2400.186295,0.002239,0.001111,cluster2
2750,2327.496146,0.002103,0.000408,cluster2
2751,2372.946312,0.00228,0.000822,cluster2
2752,2378.247191,0.002125,0.000314,cluster2
2753,2315.009767,0.003605,0.01523,cluster1
2754,2256.672903,0.002274,0.000999,cluster2
2755,2188.916576,0.002099,0.000211,cluster2
2756,2303.362682,0.00271,0.005618,cluster2
2757,2290.416681,0.004513,0.02158,cluster1
2758,2239.758986,0.003676,0.01147,cluster1
2759,2257.590861,0.002193,0.000228,cluster2
2760,2215.986491,0.003152,0.009383,cluster1
2761,2255.47224,0.003884,0.01406,cluster1
2762,2254.178239,0.003683,0.014196,cluster1
2763,2191.332173,0.004187,0.020825,cluster1
2764,2203.924967,0.003557,0.017139,cluster1
2765,2417.746067,0.002885,0.006828,cluster2
2766,2076.387857,0.005269,0.039561,cluster1
2767,2252.329901,0.004156,0.020399,cluster1
2768,2310.207927,0.003988,0.015472,cluster1
2769,2267.275056,0.004013,0.015185,cluster1
2770,2226.594687,0.00412,0.011723,cluster1
2771,2160.811795,0.00519,0.037615,cluster1
2772,2363.4255,0.002164,0.001068,cluster2
2773,2236.46839,0.002507,0.001751,cluster2
2774,2237.894548,0.003778,0.012054,cluster1
2775,2295.716979,0.003736,0.008901,cluster1
2776,2285.583052,0.003762,0.010733,cluster1
2777,2253.529687,0.004131,0.016953,cluster1
2778,2236.307881,0.004045,0.017271,cluster1
2779,2324.602831,0.004299,0.023002,cluster1
2780,2374.537744,0.004155,0.019227,cluster1
2781,2247.526486,0.005073,0.032576,cluster1
2782,2331.048279,0.005315,0.04462,cluster1
2783,2218.688046,0.005222,0.039249,cluster1
2784,2144.807501,0.005249,0.036372,cluster1
2785,2191.320501,0.005343,0.036059,cluster1
2786,2174.617611,0.005634,0.04817,cluster1
2787,2121.597243,0.005314,0.039312,cluster1
2788,2220.853093,0.004465,0.028264,cluster1
2789,2239.849,0.004498,0.022336,cluster1
2790,2231.783214,0.003668,0.00935,cluster1
2791,2161.16238,0.005841,0.049208,cluster1
2792,2257.094325,0.00376,0.012549,cluster1
2793,2364.453885,0.004042,0.018396,cluster1
2794,2262.498794,0.003655,0.012122,cluster1
2795,2270.183746,0.004386,0.018531,cluster1
2796,2315.118831,0.004237,0.018516,cluster1
2797,2306.638205,0.004226,0.013835,cluster1
2798,2193.505712,0.004657,0.025691,cluster1
2799,2234.798182,0.004711,0.029809,cluster1
2800,2207.159278,0.00489,0.034642,cluster1
2801,2219.722367,0.004973,0.031395,cluster1
2802,2147.761545,0.00602,0.053675,cluster1
2803,2231.542556,0.005635,0.047474,cluster1
2804,2238.933178,0.004656,0.028434,cluster1
2805,2354.410716,0.003831,0.011366,cluster1
2806,2293.039164,0.003106,0.006986,cluster1
2807,2227.444518,0.003354,0.012315,cluster1
2808,2194.355862,0.00359,0.013328,cluster1
2809,2307.780035,0.003106,0.005142,cluster2
2810,2297.220546,0.003694,0.012887,cluster1
2811,2316.275829,0.003682,0.008926,cluster1
2812,2238.156449,0.00528,0.045771,cluster1
2813,2094.530668,0.005284,0.038308,cluster1
2814,2434.393446,0.004582,0.021992,cluster1
2815,2410.716566,0.003038,0.005037,cluster2
2816,2331.84963,0.003544,0.009365,cluster1
2817,2473.962463,0.003073,0.009542,cluster1
2818,2417.93901,0.002275,0.000928,cluster2
2819,2477.048861,0.002205,0.000924,cluster2
2820,2539.045161,0.002208,0.001242,cluster2
2821,2434.410614,0.003857,0.020354,cluster1
2822,2349.015345,0.004854,0.030692,cluster1
2823,2333.90671,0.004399,0.02447,cluster1
2824,2355.397501,0.003806,0.013004,cluster1
2825,2340.218145,0.003824,0.015221,cluster1
2826,2451.140181,0.003524,0.01478,cluster1
2827,2285.940993,0.005163,0.033538,cluster1
2828,2445.20637,0.002254,0.0008,cluster2
2829,2403.642469,0.003305,0.011194,cluster1
2830,2184.615892,0.004751,0.027685,cluster1
2831,2345.235669,0.003142,0.009472,cluster1
2832,2293.236675,0.003935,0.017379,cluster1
2833,2386.037831,0.002911,0.004398,cluster2
2834,2305.229726,0.002181,0.001377,cluster2
2835,2308.348267,0.002849,0.008688,cluster2
2836,2306.352379,0.002223,0.001332,cluster2
2837,2240.47051,0.003316,0.013708,cluster1
2838,2105.945301,0.004854,0.027197,cluster1
2839,2210.716849,0.004172,0.017302,cluster1
2840,2208.734872,0.004124,0.016286,cluster1
2841,2217.126174,0.00377,0.010878,cluster1
2842,2247.349245,0.004093,0.018256,cluster1
2843,2237.788158,0.003877,0.0125,cluster1
2844,2221.344374,0.00416,0.017903,cluster1
2845,2175.768543,0.00412,0.017255,cluster1
2846,2194.088007,0.003626,0.012473,cluster1
2847,2115.071225,0.003804,0.017639,cluster1
2848,2160.847539,0.003564,0.013363,cluster1
2849,2141.036119,0.003991,0.015056,cluster1
2850,2055.201897,0.003326,0.008847,cluster2
2851,2157.29087,0.003742,0.013594,cluster1
2852,2259.009051,0.003079,0.005849,cluster2
2853,2225.998689,0.00259,0.001917,cluster2
2854,2203.296101,0.002332,0.000589,cluster2
2855,2136.126067,0.002662,0.003913,cluster2
2856,2112.988301,0.003516,0.010066,cluster1
2857,2054.690146,0.004122,0.01751,cluster1
2858,2091.988956,0.003249,0.013092,cluster1
2859,2033.593272,0.004219,0.017785,cluster1
2860,1970.587944,0.004872,0.029314,cluster1
2861,1987.944069,0.004407,0.01714,cluster1
2862,2009.843317,0.003947,0.013344,cluster1
2863,2082.19796,0.002555,0.005231,cluster2
2864,1898.384303,0.003403,0.009223,cluster2
2865,1985.263452,0.003585,0.008297,cluster2
2866,2028.192428,0.003858,0.011646,cluster1
2867,2016.102945,0.003046,0.005154,cluster2
2868,1941.91851,0.002926,0.004133,cluster2
2869,1963.608523,0.003111,0.004586,cluster2
2870,1983.562853,0.003429,0.007215,cluster2
2871,2011.480029,0.0028,0.001665,cluster2
2872,2028.983052,0.003516,0.007262,cluster2
2873,1909.352431,0.003139,0.003832,cluster2
2874,1921.051082,0.003242,0.005121,cluster2
2875,1910.577083,0.002931,0.003084,cluster2
2876,1845.16032,0.003149,0.003904,cluster2
2877,1884.217666,0.002826,0.004044,cluster2
2878,1883.025545,0.003083,0.005728,cluster2
2879,1808.753226,0.002053,0.000198,cluster2
2880,1814.853757,0.004314,0.017306,cluster1
2881,1851.348398,0.003484,0.005905,cluster2
2882,1838.421534,0.003837,0.014962,cluster1
2883,1825.733985,0.003176,0.007118,cluster2
2884,1786.478188,0.002935,0.001216,cluster2
2885,1824.395476,0.00316,0.003054,cluster2
2886,1810.514287,0.002982,0.002354,cluster2
2887,1777.258897,0.003691,0.012634,cluster1
2888,1775.384771,0.003742,0.006755,cluster2
2889,1736.790617,0.003868,0.011518,cluster1
2890,1709.961917,0.002931,0.002552,cluster2
2891,1758.931243,0.003151,0.003923,cluster2
2892,1713.599107,0.002974,0.004862,cluster2
2893,1767.968285,0.002672,0.001736,cluster2
2894,1695.156259,0.002648,0.002256,cluster2
2895,1686.059804,0.003046,0.005191,cluster2
2896,1673.636016,0.002923,0.003005,cluster2
2897,1629.047857,0.002289,0.000615,cluster0
2898,1710.562855,0.002278,0.000173,cluster0
2899,1663.85966,0.003195,0.007199,cluster2
2900,1646.994337,0.00304,0.004393,cluster2
2901,1660.917482,0.003256,0.004825,cluster2
2902,1648.734816,0.003066,0.004124,cluster2
2903,1561.980366,0.002698,0.002058,cluster2
2904,1525.38159,0.002718,0.002625,cluster2
2905,1531.911185,0.002744,0.002474,cluster2
2906,1578.758064,0.002736,0.001765,cluster2
2907,1489.085453,0.002929,0.00386,cluster0
2908,1467.742222,0.002599,0.002531,cluster0
2909,1504.050077,0.003088,0.003962,cluster0
2910,1427.355301,0.003217,0.003994,cluster0
2911,1567.567124,0.002797,0.002325,cluster2
2912,1503.260972,0.00293,0.003149,cluster0
2913,1431.949256,0.003016,0.002569,cluster0
2914,1481.123993,0.003122,0.001138,cluster0
2915,1541.931407,0.003125,0.002795,cluster2
2916,1457.037533,0.003381,0.009327,cluster0
2917,1459.75197,0.002258,0.000131,cluster0
2918,1349.022969,0.003201,0.007429,cluster0
2919,1402.256778,0.003291,0.007296,cluster0
2920,1423.565008,0.003303,0.006804,cluster0
2921,1426.113093,0.002243,0.000431,cluster0
2922,1365.844858,0.002234,0.000343,cluster0
2923,1370.316604,0.00224,0.000453,cluster0
2924,1366.811115,0.001994,0.000185,cluster0
2925,1447.595037,0.002265,0.000616,cluster0
2926,1389.818497,0.002641,0.00132,cluster0
2927,1367.008838,0.0025,0.000864,cluster0
2928,1431.392239,0.002647,0.000383,cluster0
2929,1461.409979,0.002068,0.000336,cluster0
2930,1419.044569,0.00226,0.000245,cluster0
2931,1391.831563,0.002284,0.00193,cluster0
2932,1324.548104,0.002976,0.004335,cluster0
2933,1312.842537,0.002839,0.002173,cluster0
2934,1281.846452,0.002789,0.001973,cluster0
2935,1329.568666,0.002965,0.005648,cluster0
2936,1258.331194,0.003373,0.009734,cluster0
2937,1252.332472,0.002786,0.004023,cluster0
2938,1286.492557,0.003728,0.007455,cluster0
2939,1318.427126,0.003751,0.010332,cluster0
2940,1293.114272,0.003448,0.010157,cluster0
2941,1322.571716,0.003261,0.005847,cluster0
2942,1329.175509,0.002651,0.001717,cluster0
2943,1360.021569,0.003119,0.00487,cluster0
2944,1348.806261,0.003225,0.005048,cluster0
2945,1366.295752,0.003301,0.005439,cluster0
2946,1324.872733,0.002809,0.003097,cluster0
2947,1281.693453,0.002487,0.002761,cluster0
2948,1404.42825,0.002741,0.00293,cluster0
2949,1400.180411,0.002822,0.003,cluster0
2950,1397.423513,0.002626,0.00087,cluster0
2951,1340.988018,0.003267,0.006567,cluster0
2952,1402.069242,0.002839,0.002837,cluster0
2953,1343.247636,0.003554,0.006286,cluster0
2954,1389.849881,0.003033,0.004632,cluster0
2955,1376.978288,0.003116,0.003952,cluster0
2956,1314.594029,0.003058,0.0037,cluster0
2957,1349.312943,0.002766,0.001718,cluster0
2958,1354.174172,0.002793,0.0027,cluster0
2959,1313.765451,0.002789,0.000853,cluster0
2960,1359.765126,0.002971,0.004531,cluster0
2961,1310.241237,0.003115,0.005088,cluster0
2962,1323.293703,0.002876,0.002193,cluster0
2963,1319.334019,0.003438,0.007241,cluster0
2964,1361.057507,0.002434,0.001495,cluster0
2965,1362.014083,0.002297,0.001655,cluster0
2966,1322.808535,0.002455,0.000897,cluster0
2967,1300.158296,0.002194,0.000188,cluster0
2968,1306.2876,0.002684,0.000576,cluster0
2969,1277.206261,0.002187,0.00144,cluster0
2970,1293.584849,0.002318,0.001092,cluster0
2971,1354.631144,0.002935,0.0053,cluster0
2972,1329.770918,0.002513,0.00143,cluster0
2973,1247.802965,0.002992,0.005,cluster0
2974,1266.241623,0.002216,0.000314,cluster0
2975,1307.547821,0.002114,0.000183,cluster0
2976,1356.162181,0.00224,0.00018,cluster0
2977,1292.47508,0.002105,0.000152,cluster0
2978,1296.156022,0.002979,0.00373,cluster0
2979,1377.588203,0.002638,0.003543,cluster0
2980,1319.144743,0.002387,0.000675,cluster0
2981,1316.433496,0.002348,0.000262,cluster0
2982,1278.465268,0.002641,0.006001,cluster0
2983,1256.788783,0.002209,0.001553,cluster0
2984,1372.021726,0.00217,0.000419,cluster0
2985,1321.797935,0.003279,0.005726,cluster0
2986,1383.217475,0.002875,0.001457,cluster0
2987,1275.052302,0.002961,0.00256,cluster0
2988,1289.018684,0.002522,0.000617,cluster0
2989,1303.41615,0.002885,0.001931,cluster0
2990,1247.005453,0.002695,0.000614,cluster0
2991,1323.00512,0.003177,0.002636,cluster0
2992,1291.387031,0.003139,0.002677,cluster0
2993,1284.730657,0.003223,0.004068,cluster0
2994,1219.856125,0.00295,0.002481,cluster0
2995,1257.572013,0.002942,0.001032,cluster0
2996,1287.494883,0.002947,0.001864,cluster0
2997,1249.917011,0.003057,0.004612,cluster0
2998,1345.232237,0.0029,0.005697,cluster0
2999,1305.125955,0.003075,0.00314,cluster0
3000,1254.464009,0.003111,0.006866,cluster0
3001,1228.014853,0.002873,0.002413,cluster0
3002,1300.916526,0.002633,0.001508,cluster0
3003,1212.794728,0.003114,0.00239,cluster0
3004,1246.910794,0.002957,0.002306,cluster0
3005,1196.007968,0.003248,0.003456,cluster0
3006,1257.445195,0.002973,0.002184,cluster0
3007,1244.541934,0.002794,0.000639,cluster0
3008,1237.085081,0.003031,0.003746,cluster0
3009,1280.050228,0.00298,0.000637,cluster0
3010,1205.147541,0.003065,0.004265,cluster0
3011,1220.702535,0.003404,0.00669,cluster0
3012,1200.117667,0.003439,0.006726,cluster0
3013,1175.104201,0.002811,0.004831,cluster0
3014,1164.767532,0.002945,0.004865,cluster0
3015,1149.29686,0.002798,0.001453,cluster0
3016,1179.475049,0.003026,0.004077,cluster0
3017,1204.402991,0.003003,0.002959,cluster0
3018,1229.257601,0.002919,0.001451,cluster0
3019,1196.899748,0.00388,0.009238,cluster0
3020,1190.967579,0.00259,0.002232,cluster0
3021,1194.349778,0.002798,0.001847,cluster0
3022,1232.007815,0.003151,0.008608,cluster0
3023,1170.305018,0.001938,0.000091,cluster0
3024,1182.503747,0.001961,0.000156,cluster0
3025,1144.279612,0.00293,0.002972,cluster0
3026,1189.765034,0.003193,0.003971,cluster0
3027,1226.714638,0.00297,0.00107,cluster0
3028,1229.969878,0.002734,0.002461,cluster0
3029,1229.49353,0.002603,0.003602,cluster0
3030,1156.604287,0.002671,0.002854,cluster0
3031,1245.415978,0.002815,0.003154,cluster0
3032,1205.665948,0.002268,0.000145,cluster0
3033,1207.601196,0.002403,0.000141,cluster0
3034,1179.578545,0.002473,0.00277,cluster0
3035,1182.444772,0.00252,0.000472,cluster0
3036,1221.894813,0.002423,0.000563,cluster0
3037,1088.762633,0.002468,0.001696,cluster0
3038,1110.241185,0.002173,0.000102,cluster0
3039,1168.956401,0.001883,0.000123,cluster0
3040,1188.244202,0.002156,0.001744,cluster0
3041,1148.063996,0.002228,0.000615,cluster0
3042,1193.709612,0.002417,0.000919,cluster0
3043,1187.811838,0.002275,0.001332,cluster0
3044,1229.549419,0.002187,0.000406,cluster0
3045,1163.884985,0.002567,0.002162,cluster0
3046,1168.394253,0.002104,0.000149,cluster0
3047,1229.009557,0.002603,0.002088,cluster0
3048,1163.94573,0.002568,0.001503,cluster0
3049,1175.475616,0.002103,0.000146,cluster0
3050,1213.748483,0.002297,0.001361,cluster0
3051,1128.831938,0.002616,0.000472,cluster0
3052,1187.898191,0.003062,0.004051,cluster0
3053,1107.227767,0.00239,0.000138,cluster0
3054,1126.655935,0.002268,0.000124,cluster0
3055,1113.412678,0.003241,0.005866,cluster0
3056,1067.82969,0.00375,0.00856,cluster0
3057,1175.046972,0.003395,0.007057,cluster0
3058,1094.863026,0.002667,0.000426,cluster0
3059,1082.500964,0.002701,0.001758,cluster0
3060,1148.844781,0.002849,0.000788,cluster0
3061,1097.503147,0.002813,0.001305,cluster0
3062,1150.549893,0.002676,0.001159,cluster0
3063,1154.66933,0.00293,0.003767,cluster0
3064,1062.028952,0.002494,0.000301,cluster0
3065,1198.3668,0.002823,0.005062,cluster0
3066,1077.296071,0.002683,0.000243,cluster0
3067,1139.812123,0.002661,0.001951,cluster0
3068,1168.721536,0.002894,0.0027,cluster0
3069,1071.857199,0.002848,0.003786,cluster0
3070,1087.753949,0.002702,0.001752,cluster0
3071,1134.478028,0.003097,0.003935,cluster0
3072,1095.493438,0.002639,0.000139,cluster0
3073,1064.114079,0.002524,0.000154,cluster0
3074,1110.192727,0.00274,0.002406,cluster0
3075,1081.356768,0.002648,0.001259,cluster0
3076,1055.455436,0.002675,0.001606,cluster0
3077,1135.641832,0.002496,0.000166,cluster0
3078,1171.808039,0.003291,0.006748,cluster0
3079,1113.183126,0.002782,0.000284,cluster0
3080,1146.796222,0.002941,0.000698,cluster0
3081,1163.684892,0.002585,0.000147,cluster0
3082,1238.294746,0.00274,0.00069,cluster0
3083,1204.270338,0.002893,0.000712,cluster0
3084,1151.770218,0.002631,0.001118,cluster0
3085,1083.572393,0.002432,0.000126,cluster0
3086,1064.216924,0.002686,0.001322,cluster0
3087,1174.292768,0.002597,0.000762,cluster0
3088,1132.581268,0.00267,0.00062,cluster0
3089,1113.540686,0.002608,0.000386,cluster0
3090,1128.055028,0.00284,0.000745,cluster0
3091,1132.138701,0.002092,0.000107,cluster0
3092,1237.784329,0.002119,0.000128,cluster0
3093,1257.264235,0.002329,0.000783,cluster0
3094,1210.269862,0.00263,0.000757,cluster0
3095,1236.65299,0.002667,0.001873,cluster0
3096,1293.274213,0.002705,0.000541,cluster0
3097,1229.986453,0.002471,0.002122,cluster0
3098,1190.04213,0.002407,0.000124,cluster0
3099,1295.619336,0.002311,0.000284,cluster0
3100,1220.087798,0.002327,0.000149,cluster0
3101,1225.063184,0.002447,0.00025,cluster0
3102,1267.274671,0.002502,0.00016,cluster0
3103,1225.452539,0.002642,0.000586,cluster0
3104,1201.593142,0.002259,0.000687,cluster0
3105,1175.669078,0.002493,0.001413,cluster0
3106,1173.223196,0.002459,0.000127,cluster0
3107,1235.864266,0.002613,0.000966,cluster0
3108,1332.86859,0.002614,0.000652,cluster0
3109,1283.178998,0.002726,0.000497,cluster0
3110,1196.351628,0.002522,0.001189,cluster0
3111,1314.167606,0.002554,0.00028,cluster0
3112,1361.013817,0.002635,0.001848,cluster0
3113,1255.40998,0.002807,0.003686,cluster0
3114,1253.930699,0.002641,0.0017,cluster0
3115,1242.798091,0.002672,0.001807,cluster0
3116,1284.176802,0.002566,0.002369,cluster0
3117,1231.668399,0.002903,0.003682,cluster0
3118,1257.500378,0.002415,0.000328,cluster0
3119,1344.262882,0.002701,0.001787,cluster0
3120,1309.936346,0.002379,0.000316,cluster0
3121,1323.718917,0.002413,0.000134,cluster0
3122,1314.516982,0.002832,0.001246,cluster0
3123,1332.121984,0.002716,0.000344,cluster0
3124,1358.689305,0.002764,0.000249,cluster0
3125,1397.935496,0.002787,0.001966,cluster0
3126,1402.115088,0.002806,0.000189,cluster0
3127,1403.871303,0.002628,0.000785,cluster0
3128,1476.605835,0.002913,0.002235,cluster0
3129,1335.56676,0.002698,0.002145,cluster0
3130,1387.165145,0.002808,0.002205,cluster0
3131,1314.541934,0.002532,0.001337,cluster0
3132,1340.849723,0.002659,0.00229,cluster0
3133,1366.72133,0.002355,0.000285,cluster0
3134,1485.37876,0.002453,0.000267,cluster0
3135,1395.031415,0.002539,0.000477,cluster0
3136,1406.703744,0.002586,0.001349,cluster0
3137,1417.249751,0.002569,0.000209,cluster0
3138,1481.567706,0.002687,0.000335,cluster0
3139,1448.64161,0.002398,0.000466,cluster0
3140,1388.178467,0.002255,0.00018,cluster0
3141,1472.298066,0.002712,0.001134,cluster0
3142,1452.750512,0.002311,0.000191,cluster0
3143,1453.751687,0.002181,0.000177,cluster0
3144,1533.783118,0.002555,0.000226,cluster0
3145,1521.608745,0.002308,0.000178,cluster0
3146,1485.553869,0.002066,0.000189,cluster0
3147,1459.249816,0.002006,0.000198,cluster0
3148,1448.277508,0.0017,0.000136,cluster0
3149,1547.864998,0.001931,0.000132,cluster0
3150,1502.428318,0.002101,0.000151,cluster0
3151,1498.629465,0.00197,0.000126,cluster0
3152,1537.058471,0.002097,0.000204,cluster0
3153,1518.516036,0.002008,0.000128,cluster0
3154,1532.028038,0.002004,0.00016,cluster0
3155,1512.228079,0.001964,0.000387,cluster0
3156,1525.362643,0.001853,0.000095,cluster0
3157,1576.046268,0.001934,0.000148,cluster0
3158,1546.089848,0.00221,0.000892,cluster0
3159,1534.843609,0.001896,0.000923,cluster0
3160,1529.904264,0.001918,0.000309,cluster0
3161,1524.6754,0.001979,0.000148,cluster0
3162,1543.966543,0.00205,0.000517,cluster0
3163,1578.375259,0.001974,0.000182,cluster0
3164,1587.309184,0.001914,0.000184,cluster0
3165,1532.77354,0.001935,0.000256,cluster0
3166,1563.063664,0.002042,0.000174,cluster0
3167,1609.704268,0.00202,0.000276,cluster0
3168,1557.165537,0.001808,0.000156,cluster0
3169,1651.172694,0.002111,0.000172,cluster0
3170,1627.307292,0.002041,0.00016,cluster0
3171,1588.942424,0.00192,0.000135,cluster0
3172,1595.807437,0.002101,0.000326,cluster0
3173,1632.870028,0.002056,0.000179,cluster0
3174,1649.790911,0.002372,0.000178,cluster0
3175,1610.35532,0.002128,0.000192,cluster0
3176,1595.989598,0.001862,0.00017,cluster0
3177,1461.008938,0.00202,0.000146,cluster0
3178,1531.410229,0.001873,0.000183,cluster0
3179,1582.644791,0.001816,0.000169,cluster0
3180,1675.786542,0.002191,0.000347,cluster0
3181,1690.015055,0.002124,0.001236,cluster0
3182,1770.966369,0.001901,0.000246,cluster2
3183,1778.910563,0.001883,0.000257,cluster2
3184,1608.139793,0.001894,0.000152,cluster0
3185,1697.900762,0.002001,0.000228,cluster0
3186,1728.670529,0.002193,0.000759,cluster0
3187,1720.432964,0.001934,0.000161,cluster0
3188,1688.5303,0.002282,0.000173,cluster0
3189,1757.583388,0.001916,0.000177,cluster2
3190,1731.739927,0.002194,0.000509,cluster0
3191,1723.322537,0.002025,0.000175,cluster0
3192,1653.97119,0.001876,0.000153,cluster0
3193,1672.684848,0.002022,0.000127,cluster0
3194,1677.044925,0.00217,0.000299,cluster0
3195,1625.798079,0.002144,0.000156,cluster0
3196,1663.387864,0.002111,0.000161,cluster0
3197,1711.567817,0.002014,0.00034,cluster0
3198,1700.841592,0.002391,0.001517,cluster2
3199,1714.094432,0.002068,0.000174,cluster0
3200,1844.746345,0.002132,0.000162,cluster2
3201,1797.845524,0.002262,0.000774,cluster2
3202,1840.181375,0.002034,0.000184,cluster2
3203,1769.323985,0.002057,0.001334,cluster2
3204,1724.499134,0.00223,0.000161,cluster0
3205,1803.202534,0.002107,0.000128,cluster2
3206,1691.420567,0.002123,0.001223,cluster0
3207,1697.68753,0.002069,0.000217,cluster0
3208,1712.934289,0.002786,0.002047,cluster2
3209,1752.22475,0.00265,0.00043,cluster2
3210,1783.060158,0.00261,0.000979,cluster2
3211,1725.39489,0.002984,0.00213,cluster2
3212,1730.478905,0.002745,0.000478,cluster2
3213,1715.805595,0.002814,0.001322,cluster2
3214,1719.677798,0.002774,0.000957,cluster2
3215,1704.82963,0.003102,0.003904,cluster2
3216,1674.31122,0.00268,0.001847,cluster2
3217,1798.819687,0.002149,0.000597,cluster2
3218,1864.667874,0.002696,0.001992,cluster2
3219,1750.412671,0.00225,0.000361,cluster2
3220,1757.728282,0.001907,0.000163,cluster2
3221,1744.559411,0.00194,0.000159,cluster0
3222,1842.893237,0.00201,0.00017,cluster2
3223,1788.105625,0.002083,0.000722,cluster2
3224,1878.611345,0.001975,0.000162,cluster2
3225,1840.3423,0.002039,0.000149,cluster2
3226,1805.880713,0.002,0.00017,cluster2
3227,1755.775817,0.001988,0.000175,cluster2
3228,1820.606952,0.001891,0.000185,cluster2
3229,1753.058152,0.001927,0.000211,cluster2
3230,1879.158404,0.002233,0.000225,cluster2
3231,1813.159727,0.002487,0.001547,cluster2
3232,1807.103028,0.001949,0.000157,cluster2
3233,1785.125515,0.001993,0.00016,cluster2
3234,1828.396528,0.002246,0.000597,cluster2
3235,1822.137299,0.002133,0.000194,cluster2
3236,1861.644849,0.002098,0.000225,cluster2
3237,1747.278691,0.002191,0.000203,cluster2
3238,1787.718653,0.00198,0.000143,cluster2
3239,1798.233,0.002001,0.000181,cluster2
3240,1766.696335,0.00204,0.000784,cluster2
3241,1770.975788,0.0021,0.000197,cluster2
3242,1830.021918,0.002082,0.00018,cluster2
3243,1813.299079,0.00198,0.000139,cluster2
3244,1816.800138,0.001927,0.000297,cluster2
3245,1813.824613,0.00207,0.000211,cluster2
3246,1813.980079,0.002112,0.000299,cluster2
3247,1875.217344,0.001975,0.000219,cluster2
3248,1828.44097,0.00212,0.000147,cluster2
3249,1921.489346,0.002054,0.000336,cluster2
3250,1896.129116,0.002126,0.000246,cluster2
3251,1961.765933,0.003081,0.001659,cluster2
3252,1817.563606,0.002606,0.000568,cluster2
3253,1874.348737,0.002127,0.00015,cluster2
3254,1950.264379,0.00215,0.000213,cluster2
3255,1905.036926,0.002109,0.000195,cluster2
3256,1854.305483,0.002431,0.000766,cluster2
3257,1779.449402,0.00202,0.000392,cluster2
3258,1834.90088,0.002084,0.000228,cluster2
3259,1789.457554,0.002092,0.000194,cluster2
3260,1723.311944,0.002158,0.000703,cluster0
3261,1731.329106,0.001824,0.000155,cluster0
3262,1716.589163,0.002055,0.000134,cluster0
3263,1812.038272,0.00206,0.00079,cluster2
3264,1747.817178,0.002146,0.001708,cluster2
3265,1777.215364,0.002364,0.001127,cluster2
3266,1730.33909,0.002109,0.000155,cluster0
3267,1763.158524,0.002217,0.000174,cluster2
3268,1716.689882,0.002094,0.0004,cluster0
3269,1724.273374,0.001992,0.000158,cluster0
3270,1756.27434,0.002102,0.000247,cluster2
3271,1750.84155,0.002158,0.00067,cluster2
3272,1801.115199,0.002313,0.000504,cluster2
3273,1734.805075,0.00295,0.000368,cluster2
3274,1706.316553,0.002953,0.001134,cluster2
3275,1722.870566,0.002639,0.000955,cluster2
3276,1755.884394,0.002806,0.001135,cluster2
3277,1792.155176,0.002773,0.001406,cluster2
3278,1798.319124,0.002766,0.000522,cluster2
3279,1761.689342,0.002962,0.002553,cluster2
3280,1775.863972,0.002931,0.001574,cluster2
3281,1910.804283,0.003263,0.00475,cluster2
3282,1835.774936,0.002633,0.000328,cluster2
3283,1901.222887,0.002562,0.001481,cluster2
3284,1885.824489,0.002939,0.001699,cluster2
3285,1835.782177,0.003179,0.004048,cluster2
3286,1771.830987,0.002734,0.003891,cluster2
3287,1801.938339,0.002916,0.002979,cluster2
3288,1854.904747,0.002791,0.002228,cluster2
3289,1818.354481,0.002722,0.001264,cluster2
3290,1833.408386,0.003001,0.004681,cluster2
3291,1852.671444,0.002891,0.001582,cluster2
3292,1842.266333,0.002757,0.000405,cluster2
3293,1887.763377,0.003117,0.003325,cluster2
3294,1843.523491,0.002866,0.003898,cluster2
3295,1874.567717,0.003254,0.006744,cluster2
3296,1940.926888,0.003001,0.00289,cluster2
3297,1929.648496,0.002429,0.000334,cluster2
3298,1843.243545,0.002741,0.001663,cluster2
3299,1828.499861,0.002681,0.00034,cluster2
3300,1866.184148,0.002714,0.002048,cluster2
3301,1962.343039,0.002101,0.000273,cluster2
3302,1974.594208,0.002457,0.000294,cluster2
3303,1975.634159,0.002833,0.002217,cluster2
3304,1913.42203,0.002818,0.000621,cluster2
3305,1929.38272,0.002736,0.000342,cluster2
3306,1962.22757,0.00218,0.000221,cluster2
3307,1960.294861,0.002002,0.000177,cluster2
3308,2011.75301,0.002212,0.000352,cluster2
3309,2011.34601,0.00214,0.000199,cluster2
3310,1998.594958,0.00219,0.000258,cluster2
3311,2100.488305,0.002166,0.000261,cluster2
3312,2068.54962,0.002168,0.00026,cluster2
3313,1987.239918,0.002525,0.001385,cluster2
3314,2036.37333,0.003158,0.006701,cluster2
3315,2043.818466,0.002033,0.000221,cluster2
3316,2010.129042,0.001933,0.000442,cluster2
3317,2009.497437,0.002595,0.002867,cluster2
3318,2069.603004,0.002055,0.000208,cluster2
3319,2091.688094,0.002018,0.000684,cluster2
3320,2111.226273,0.002488,0.003055,cluster2
3321,2085.332287,0.002112,0.000203,cluster2
3322,2077.010025,0.002156,0.000538,cluster2
3323,2095.680737,0.002031,0.000329,cluster2
3324,2015.973568,0.002145,0.000224,cluster2
3325,2020.428425,0.002051,0.000201,cluster2
3326,2063.958753,0.002128,0.00035,cluster2
3327,2023.841764,0.002045,0.000176,cluster2
3328,1963.083543,0.001969,0.000291,cluster2
3329,2019.294531,0.001998,0.000227,cluster2
3330,1954.197358,0.002068,0.000209,cluster2
3331,2089.720449,0.002415,0.000297,cluster2
3332,2009.712448,0.00206,0.00045,cluster2
3333,1971.696551,0.002025,0.000238,cluster2
3334,2006.934936,0.002095,0.000347,cluster2
3335,1957.273214,0.002573,0.000747,cluster2
3336,1961.589075,0.003031,0.007473,cluster2
3337,1945.87821,0.00318,0.004723,cluster2
3338,2035.043344,0.002346,0.001126,cluster2
3339,2064.863165,0.002094,0.000231,cluster2
3340,2123.050678,0.002373,0.005231,cluster2
3341,2032.045149,0.002424,0.000434,cluster2
3342,2198.403275,0.002165,0.00183,cluster2
3343,2082.411956,0.003131,0.006535,cluster2
3344,2004.582801,0.002508,0.004338,cluster2
3345,2021.059108,0.003642,0.009906,cluster1
3346,2045.90254,0.003359,0.007488,cluster2
3347,2205.542006,0.002805,0.002622,cluster2
3348,2148.327289,0.002341,0.000803,cluster2
3349,2200.918872,0.002645,0.003007,cluster2
3350,2178.19967,0.003506,0.005397,cluster1
3351,2093.881195,0.003835,0.01227,cluster1
3352,2136.383232,0.002197,0.000861,cluster2
3353,2168.77998,0.002955,0.00451,cluster2
3354,2093.017498,0.002263,0.000838,cluster2
3355,2096.926033,0.002526,0.001655,cluster2
3356,2059.087971,0.002353,0.002267,cluster2
3357,2112.712932,0.002274,0.000357,cluster2
3358,2081.627438,0.002377,0.001503,cluster2
3359,2089.223759,0.002111,0.000245,cluster2
3360,2049.674284,0.002214,0.000764,cluster2
3361,2083.011174,0.002242,0.002346,cluster2
3362,2036.753159,0.00322,0.005464,cluster2
3363,2002.421843,0.002943,0.002506,cluster2
3364,2104.383038,0.003093,0.003154,cluster2
3365,2124.668156,0.002411,0.002175,cluster2
3366,2106.689395,0.002657,0.001,cluster2
3367,2124.24621,0.002166,0.00023,cluster2
3368,2119.634318,0.002463,0.002665,cluster2
3369,2113.917748,0.003628,0.009067,cluster1
3370,2142.75652,0.003744,0.013534,cluster1
3371,2122.601424,0.003462,0.008692,cluster1
3372,2116.76263,0.002238,0.000399,cluster2
3373,2092.393905,0.002446,0.001065,cluster2
3374,2109.224304,0.003135,0.005359,cluster2
3375,2142.34553,0.002446,0.000548,cluster2
3376,2060.029072,0.00205,0.000221,cluster2
3377,2167.466537,0.003212,0.003285,cluster2
3378,2171.318536,0.002425,0.000929,cluster2
3379,2214.70068,0.002239,0.000941,cluster2
3380,2149.991871,0.003102,0.003325,cluster2
3381,2178.065313,0.003188,0.006509,cluster2
3382,2146.207728,0.002839,0.003886,cluster2
3383,2151.566644,0.003501,0.009927,cluster1
3384,2118.084679,0.003229,0.003953,cluster2
3385,2117.27744,0.003414,0.008473,cluster1
3386,2060.241966,0.003793,0.01132,cluster1
3387,2089.034919,0.002931,0.002277,cluster2
3388,2066.469146,0.002778,0.003174,cluster2
3389,2148.65507,0.002272,0.000636,cluster2
3390,2160.00584,0.002492,0.002631,cluster2
3391,2265.288858,0.002458,0.001778,cluster2
3392,2142.434948,0.002988,0.003967,cluster2
3393,2128.660545,0.003614,0.012123,cluster1
3394,2068.557165,0.00325,0.007658,cluster2
3395,2100.620997,0.00343,0.010189,cluster1
3396,2104.347843,0.00266,0.003435,cluster2
3397,2164.950749,0.002673,0.00055,cluster2
3398,2135.184174,0.002997,0.004356,cluster2
3399,2054.032977,0.004087,0.016052,cluster1
3400,2143.083961,0.003217,0.008703,cluster1
3401,2068.197347,0.003818,0.010359,cluster1
3402,2147.59515,0.002405,0.001422,cluster2
3403,2162.78304,0.002042,0.000277,cluster2
3404,2162.252537,0.002641,0.001782,cluster2
3405,2042.786111,0.004035,0.015232,cluster1
3406,2068.261825,0.003848,0.012314,cluster1
3407,2129.585349,0.003064,0.006814,cluster2
3408,2022.997693,0.002996,0.001386,cluster2
3409,2080.015556,0.003316,0.00414,cluster2
3410,2025.250711,0.003157,0.004737,cluster2
3411,2088.503423,0.003567,0.007302,cluster1
3412,2104.188117,0.003523,0.010676,cluster1
3413,2038.438865,0.003427,0.011685,cluster1
3414,2031.145666,0.003419,0.007797,cluster2
3415,2081.793671,0.00309,0.006845,cluster2
3416,2078.954514,0.003736,0.01122,cluster1
3417,2030.328709,0.00343,0.007834,cluster2
3418,2143.408134,0.002835,0.001916,cluster2
3419,2020.858293,0.003662,0.009787,cluster1
3420,1993.831514,0.003483,0.009368,cluster2
3421,2061.361069,0.003772,0.01202,cluster1
3422,2105.737639,0.004292,0.017256,cluster1
3423,2083.997018,0.003339,0.007943,cluster2
3424,2079.123749,0.003459,0.008777,cluster1
3425,2110.401585,0.003575,0.008874,cluster1
3426,2084.906522,0.003073,0.005596,cluster2
3427,2082.099531,0.00251,0.003749,cluster2
3428,2186.619001,0.002151,0.000476,cluster2
3429,2100.970459,0.003959,0.016145,cluster1
3430,2100.617189,0.004551,0.021288,cluster1
3431,2055.455521,0.00402,0.015667,cluster1
3432,2073.258558,0.004033,0.016939,cluster1
3433,2082.930584,0.003263,0.006192,cluster2
3434,2037.752553,0.00387,0.015147,cluster1
3435,2057.702187,0.004605,0.02566,cluster1
3436,2036.987494,0.00383,0.012524,cluster1
3437,2053.113253,0.003764,0.013765,cluster1
3438,2115.14718,0.003749,0.012361,cluster1
3439,2161.659255,0.002051,0.000709,cluster2
3440,2135.370051,0.002209,0.000327,cluster2
3441,2034.855067,0.00226,0.000373,cluster2
3442,2160.444835,0.002325,0.000593,cluster2
3443,2117.618797,0.002098,0.000497,cluster2
3444,2092.113394,0.003223,0.008302,cluster2
3445,2111.594906,0.002585,0.004804,cluster2
3446,2040.314017,0.002742,0.002436,cluster2
3447,2015.654445,0.002626,0.004135,cluster2
3448,2135.83691,0.002717,0.00462,cluster2
3449,2049.851242,0.003024,0.005158,cluster2
3450,2083.647254,0.002439,0.00032,cluster2
3451,2072.737663,0.002911,0.003381,cluster2
3452,2143.394162,0.002471,0.000703,cluster2
3453,2111.765547,0.002255,0.000312,cluster2
3454,2074.251921,0.002203,0.000279,cluster2
3455,2153.401591,0.002113,0.000316,cluster2
3456,2114.889972,0.002473,0.003291,cluster2
3457,2139.911194,0.002982,0.00387,cluster2
3458,2061.676066,0.002629,0.00308,cluster2
3459,2028.7678,0.002399,0.000547,cluster2
3460,2105.7478,0.002232,0.001009,cluster2
3461,2203.515445,0.002569,0.002938,cluster2
3462,2154.672754,0.002738,0.002743,cluster2
3463,2112.644875,0.00238,0.003129,cluster2
3464,2123.627778,0.002161,0.000862,cluster2
3465,2060.798739,0.002209,0.001054,cluster2
3466,2010.422414,0.002364,0.003316,cluster2
3467,2095.282012,0.003091,0.005755,cluster2
3468,2063.618989,0.003319,0.008798,cluster2
3469,2043.565894,0.002429,0.001036,cluster2
3470,2046.15373,0.002231,0.00091,cluster2
3471,2012.680499,0.003205,0.008811,cluster2
3472,2129.884906,0.003344,0.006018,cluster2
3473,2033.193711,0.003554,0.010848,cluster1
3474,2046.138631,0.003306,0.00727,cluster2
3475,2022.388235,0.003245,0.007286,cluster2
3476,1991.815043,0.003401,0.007696,cluster2
3477,2017.741686,0.003208,0.003947,cluster2
3478,1969.632964,0.003007,0.002618,cluster2
3479,1898.624312,0.003841,0.016296,cluster1
3480,1987.305754,0.003438,0.009326,cluster2
3481,2007.194893,0.003174,0.004117,cluster2
3482,1948.302956,0.003389,0.008767,cluster2
3483,1959.369437,0.002703,0.002139,cluster2
3484,1962.031191,0.003145,0.006533,cluster2
3485,1948.621528,0.003468,0.008148,cluster2
3486,2020.777373,0.004212,0.015226,cluster1
3487,1907.203959,0.004118,0.013971,cluster1
3488,1972.250873,0.003,0.003942,cluster2
3489,1966.045136,0.002985,0.004705,cluster2
3490,1935.967684,0.002432,0.002216,cluster2
3491,1982.385598,0.002396,0.000546,cluster2
3492,2089.852792,0.002281,0.000301,cluster2
3493,1920.333824,0.002235,0.001663,cluster2
3494,1949.203158,0.00234,0.001086,cluster2
3495,2010.318136,0.002497,0.001054,cluster2
3496,1996.963964,0.002482,0.002483,cluster2
3497,1943.277794,0.00331,0.006841,cluster2
3498,1948.331575,0.002462,0.001163,cluster2
3499,1972.098974,0.003126,0.004442,cluster2
3500,1930.250202,0.003671,0.010293,cluster1
3501,2007.146568,0.004113,0.017503,cluster1
3502,2012.916261,0.004921,0.02661,cluster1
3503,1927.137325,0.004243,0.015541,cluster1
3504,1978.100441,0.00336,0.008257,cluster2
3505,2025.446255,0.003643,0.012115,cluster1
3506,1956.370394,0.00287,0.003233,cluster2
3507,1899.751158,0.003132,0.004004,cluster2
3508,1971.520613,0.003285,0.003647,cluster2
3509,1976.38842,0.003236,0.004988,cluster2
3510,1978.103869,0.003753,0.012659,cluster1
3511,1986.781093,0.003764,0.010648,cluster1
3512,1984.153667,0.003486,0.009061,cluster2
3513,1984.215906,0.003191,0.009293,cluster2
3514,2019.437528,0.003563,0.009645,cluster1
3515,2061.241646,0.003659,0.009052,cluster1
3516,2033.930275,0.003057,0.002727,cluster2
3517,2030.666762,0.002525,0.001046,cluster2
3518,2104.141519,0.002223,0.000224,cluster2
3519,2080.746588,0.002727,0.002836,cluster2
3520,2019.88469,0.00329,0.006708,cluster2
3521,2034.961767,0.003325,0.006385,cluster2
3522,1965.963547,0.003254,0.003318,cluster2
3523,2011.266101,0.003244,0.003301,cluster2
3524,2007.465686,0.002527,0.001215,cluster2
3525,2000.089838,0.002606,0.002428,cluster2
3526,2070.80975,0.003477,0.007514,cluster1
3527,1921.464219,0.003664,0.011107,cluster1
3528,2020.977502,0.003041,0.002317,cluster2
3529,1974.366732,0.003638,0.009668,cluster1
3530,1960.748514,0.003334,0.004335,cluster2
3531,1930.792736,0.003299,0.006462,cluster2
3532,1974.634472,0.002908,0.002669,cluster2
3533,1967.631726,0.002174,0.000224,cluster2
3534,1937.695426,0.002876,0.003831,cluster2
3535,1965.82581,0.002294,0.00074,cluster2
3536,1963.970101,0.002528,0.001725,cluster2
3537,2031.770006,0.004101,0.017223,cluster1
3538,2028.916695,0.003024,0.005036,cluster2
3539,1994.3826,0.002858,0.004987,cluster2
3540,2062.837765,0.002406,0.000453,cluster2
3541,2083.508707,0.002647,0.002712,cluster2
3542,1999.556609,0.002719,0.002641,cluster2
3543,1982.863787,0.002631,0.001528,cluster2
3544,2078.181736,0.002963,0.007025,cluster2
3545,1986.495862,0.003931,0.009831,cluster1
3546,2057.19852,0.002564,0.003134,cluster2
3547,2021.688063,0.00316,0.006816,cluster2
3548,2023.646869,0.003821,0.01362,cluster1
3549,1987.070161,0.00408,0.012513,cluster1
3550,2024.75599,0.002632,0.002322,cluster2
3551,1992.6163,0.00333,0.009972,cluster2
3552,2078.461942,0.00353,0.007537,cluster1
3553,1978.108667,0.002986,0.002619,cluster2
3554,1957.60377,0.003402,0.005329,cluster2
3555,1946.987761,0.002323,0.001913,cluster2
3556,1969.200793,0.002467,0.000883,cluster2
3557,1937.658444,0.002761,0.003243,cluster2
3558,1974.362718,0.00367,0.007707,cluster2
3559,1947.002364,0.003209,0.003383,cluster2
3560,1885.195044,0.003092,0.002903,cluster2
3561,1884.110759,0.002521,0.000843,cluster2
3562,1925.188201,0.002821,0.00075,cluster2
3563,1856.882907,0.00291,0.002192,cluster2
3564,1977.266857,0.002742,0.002365,cluster2
3565,1914.086235,0.002276,0.001745,cluster2
3566,1818.725298,0.002802,0.004095,cluster2
3567,1860.727407,0.002487,0.004251,cluster2
3568,1830.987568,0.002231,0.002008,cluster2
3569,1867.052832,0.002686,0.005412,cluster2
3570,1829.632968,0.002552,0.001092,cluster2
3571,1886.536589,0.002547,0.001352,cluster2
3572,1861.670429,0.002779,0.003743,cluster2
3573,1843.843963,0.002868,0.003449,cluster2
3574,1785.859167,0.003059,0.003123,cluster2
3575,1852.401808,0.003213,0.005516,cluster2
3576,1747.577357,0.002889,0.004915,cluster2
3577,1798.761052,0.003066,0.003376,cluster2
3578,1876.905988,0.002937,0.004072,cluster2
3579,1855.415018,0.003184,0.007857,cluster2
3580,1828.818479,0.00334,0.012102,cluster2
3581,1793.059061,0.00289,0.004013,cluster2
3582,1797.121943,0.002719,0.00169,cluster2
3583,1734.191327,0.003512,0.009119,cluster2
3584,1764.623109,0.003126,0.004371,cluster2
3585,1786.76164,0.003197,0.008482,cluster2
3586,1723.318961,0.003002,0.004228,cluster2
3587,1732.198876,0.003188,0.005029,cluster2
3588,1730.498107,0.003363,0.008904,cluster2
3589,1690.101142,0.002847,0.003134,cluster2
3590,1778.140003,0.002432,0.000289,cluster2
3591,1682.907945,0.002756,0.003147,cluster2
3592,1741.538808,0.003009,0.001538,cluster2
3593,1698.439617,0.003209,0.007754,cluster2
3594,1760.63485,0.003397,0.007128,cluster2
3595,1726.592305,0.003456,0.010118,cluster2
3596,1650.670645,0.003267,0.008006,cluster2
3597,1695.047866,0.003503,0.006702,cluster2
3598,1642.978442,0.002556,0.003132,cluster2
3599,1661.187765,0.003221,0.004843,cluster2
